# LFR-like benchmark
# Nodes: 1000, Edges: 5424, Communities: 99
0 180
0 213
0 387
0 499
0 547
0 548
0 856
1 206
1 403
1 581
1 718
1 748
1 937
2 133
2 151
2 553
2 639
2 879
3 123
3 168
3 352
3 511
3 691
3 839
3 863
4 6
4 11
4 28
4 45
4 250
4 421
4 504
4 542
4 862
4 997
5 142
5 474
5 559
5 642
5 668
5 701
5 735
5 795
5 937
5 961
5 979
6 15
6 71
6 146
6 185
6 316
6 350
6 359
6 410
6 579
6 762
6 781
6 818
6 853
6 987
7 56
7 209
7 216
7 225
7 404
7 554
7 584
7 633
7 640
7 842
7 903
8 123
8 236
8 255
8 274
8 341
8 624
8 689
8 866
8 932
8 993
9 131
9 191
9 219
9 237
9 388
9 506
9 546
9 582
9 745
9 800
9 952
10 60
10 182
10 214
10 325
10 391
10 422
10 443
10 883
10 968
11 28
11 299
11 421
11 504
11 518
11 542
11 690
11 765
11 862
11 986
12 107
12 109
12 165
12 222
12 271
12 287
12 428
12 514
12 588
12 663
12 943
13 27
13 120
13 197
13 492
13 574
13 690
13 869
13 930
14 41
14 114
14 163
14 171
14 365
14 478
14 564
14 671
14 714
14 741
14 830
14 848
14 850
15 26
15 112
15 134
15 160
15 178
15 366
15 676
15 828
15 887
16 53
16 129
16 243
16 271
16 331
16 602
16 725
16 759
16 955
17 64
17 81
17 187
17 224
17 354
17 372
17 463
17 646
17 663
17 916
17 938
18 196
18 371
18 526
18 667
18 734
18 754
18 777
18 929
18 957
19 138
19 235
19 446
19 512
19 818
19 878
19 919
20 62
20 72
20 152
20 266
20 299
20 444
20 466
20 576
20 680
20 966
20 989
20 999
21 51
21 128
21 210
21 249
21 341
21 453
21 465
21 578
21 805
21 899
21 975
22 182
22 199
22 325
22 391
22 422
22 443
22 708
22 883
23 122
23 229
23 288
23 300
23 432
23 828
23 870
23 947
24 32
24 234
24 318
24 327
24 590
24 597
24 618
24 694
24 797
24 799
24 844
24 850
24 894
24 898
24 899
25 326
25 403
25 537
25 695
25 748
25 848
25 906
25 937
26 125
26 134
26 178
26 273
26 429
26 817
26 900
27 120
27 191
27 197
27 492
27 576
27 637
27 964
28 45
28 250
28 480
28 504
28 518
28 542
28 564
28 757
28 834
28 862
28 946
29 164
29 184
29 273
29 373
29 401
29 570
29 623
29 719
29 730
30 47
30 127
30 143
30 217
30 494
30 503
30 531
30 534
30 554
30 598
30 643
30 722
30 769
30 855
31 246
31 308
31 411
31 469
31 533
31 658
31 674
31 867
31 946
31 992
32 71
32 319
32 327
32 458
32 551
32 590
32 786
32 850
32 894
32 898
32 899
33 60
33 94
33 126
33 141
33 194
33 251
33 252
33 291
33 295
33 298
33 322
33 350
33 394
33 409
33 549
33 571
33 615
33 618
33 675
33 699
33 705
33 779
33 931
33 959
33 990
34 259
34 268
34 319
34 346
34 476
34 540
34 568
34 869
35 135
35 243
35 276
35 312
35 426
35 523
35 731
35 771
35 789
35 897
36 48
36 160
36 205
36 235
36 297
36 324
36 553
36 562
36 584
36 682
36 811
36 914
37 107
37 124
37 155
37 327
37 625
37 652
37 826
37 833
37 835
37 950
38 58
38 86
38 193
38 260
38 293
38 302
38 377
38 402
38 472
38 516
38 656
38 806
38 809
38 856
38 874
38 889
38 984
39 193
39 200
39 232
39 415
39 441
39 545
39 633
39 635
39 932
39 986
40 162
40 176
40 215
40 253
40 372
40 448
40 449
40 516
40 535
40 659
40 994
41 114
41 162
41 163
41 171
41 311
41 365
41 478
41 671
41 741
41 830
42 92
42 255
42 350
42 460
42 464
42 594
42 701
42 712
42 965
43 235
43 443
43 446
43 572
43 684
43 766
43 782
43 818
44 98
44 111
44 226
44 515
44 607
44 744
44 771
44 802
45 250
45 421
45 453
45 504
45 793
45 862
46 315
46 498
46 625
46 683
46 694
46 722
46 863
47 127
47 143
47 503
47 554
47 643
47 658
47 855
48 160
48 205
48 324
48 447
48 457
48 562
48 584
48 682
48 811
48 914
49 109
49 428
49 514
49 588
49 799
49 943
50 83
50 86
50 159
50 278
50 434
50 453
50 632
50 677
50 690
51 128
51 249
51 341
51 736
51 805
51 975
52 294
52 319
52 360
52 374
52 519
52 591
52 614
52 741
52 859
52 981
52 995
53 129
53 243
53 271
53 287
53 311
53 331
53 437
53 501
53 602
53 759
53 778
53 809
53 944
53 955
54 111
54 287
54 369
54 438
54 485
54 761
54 788
54 820
54 976
55 100
55 170
55 215
55 220
55 313
55 316
55 363
55 382
55 456
55 566
55 700
55 784
55 946
55 949
56 193
56 209
56 216
56 225
56 313
56 404
56 524
56 613
56 760
56 842
56 903
57 69
57 154
57 310
57 323
57 338
57 390
57 450
57 480
57 732
58 118
58 394
58 472
58 656
58 806
58 856
58 889
58 951
58 963
59 451
59 573
59 649
59 693
59 704
59 720
59 860
59 902
59 936
60 94
60 103
60 111
60 119
60 126
60 141
60 208
60 251
60 252
60 295
60 298
60 322
60 350
60 394
60 409
60 455
60 549
60 583
60 615
60 618
60 699
60 705
60 779
60 836
60 990
61 87
61 95
61 98
61 227
61 381
61 388
61 442
61 569
61 756
61 762
61 948
62 108
62 194
62 367
62 376
62 407
62 557
62 702
62 923
63 351
63 461
63 474
63 498
63 513
63 523
63 538
63 640
63 746
63 782
63 906
63 920
64 81
64 166
64 187
64 224
64 254
64 354
64 442
64 479
64 483
64 646
64 768
64 938
64 991
65 116
65 200
65 287
65 459
65 487
65 525
65 538
65 779
65 790
65 796
66 193
66 369
66 438
66 820
66 851
66 893
66 976
67 132
67 332
67 427
67 471
67 599
67 639
67 927
67 964
68 156
68 261
68 363
68 383
68 437
68 485
68 546
68 681
68 703
68 846
68 941
69 310
69 323
69 450
69 480
69 609
69 732
69 882
70 212
70 221
70 238
70 567
70 600
70 694
70 832
70 874
70 890
71 86
71 146
71 174
71 185
71 316
71 359
71 410
71 507
71 579
71 586
71 727
71 781
71 853
71 969
72 152
72 266
72 273
72 299
72 361
72 444
72 466
72 576
72 680
72 845
72 891
72 989
73 255
73 446
73 512
73 666
73 684
73 803
74 356
74 436
74 500
74 599
74 641
74 685
74 765
74 769
74 842
75 82
75 110
75 329
75 454
75 502
75 552
75 622
75 988
75 998
76 121
76 147
76 193
76 226
76 280
76 311
76 327
76 397
76 413
76 445
76 491
76 533
76 554
76 707
76 711
76 823
76 824
77 181
77 330
77 333
77 475
77 505
77 577
77 593
77 693
77 840
77 919
77 970
78 198
78 522
78 595
78 630
78 727
78 831
78 911
78 926
79 470
79 655
79 783
79 791
79 793
79 844
79 925
80 108
80 317
80 405
80 455
80 603
80 689
80 773
80 792
80 973
81 187
81 211
81 224
81 354
81 483
81 646
81 677
81 916
81 938
82 86
82 110
82 329
82 454
82 502
82 622
82 729
82 892
82 998
83 142
83 159
83 278
83 395
83 434
83 453
83 632
83 677
83 690
83 753
83 802
83 842
84 262
84 419
84 441
84 548
84 565
84 606
84 700
84 721
85 218
85 227
85 348
85 365
85 444
85 630
85 642
85 698
85 973
86 161
86 178
86 349
86 356
86 378
86 486
86 581
86 704
86 760
86 786
86 810
86 814
86 876
86 928
86 953
86 987
87 95
87 98
87 285
87 381
87 569
87 756
87 762
87 948
87 954
88 138
88 260
88 277
88 297
88 508
88 563
88 669
88 754
88 825
88 929
89 173
89 237
89 245
89 380
89 467
89 724
89 730
89 760
90 193
90 554
90 652
90 758
90 917
90 918
90 977
90 982
91 268
91 272
91 306
91 338
91 486
91 510
91 595
91 835
91 962
92 393
92 460
92 473
92 585
92 594
92 630
92 633
92 651
92 712
92 965
93 103
93 123
93 217
93 438
93 465
93 515
93 654
93 674
93 843
94 141
94 173
94 251
94 252
94 295
94 350
94 394
94 409
94 618
94 699
95 98
95 442
95 535
95 569
95 756
95 762
95 948
96 278
96 289
96 329
96 342
96 346
96 396
96 418
96 579
96 630
96 716
96 743
96 745
96 822
96 829
96 854
96 884
96 947
97 233
97 320
97 408
97 423
97 425
97 443
97 747
97 831
97 839
97 840
97 847
97 871
98 122
98 241
98 338
98 381
98 442
98 569
98 756
98 762
98 874
98 927
98 948
98 953
99 140
99 188
99 236
99 292
99 403
99 484
99 558
99 601
99 714
99 736
99 797
99 807
99 880
99 942
100 170
100 215
100 256
100 313
100 363
100 382
100 784
100 946
100 949
101 171
101 461
101 478
102 123
102 195
102 214
102 257
102 270
102 309
102 398
102 478
102 607
102 880
102 888
102 952
102 972
102 994
103 302
103 344
103 551
103 608
103 667
103 706
103 804
103 933
103 939
104 248
104 526
104 530
104 532
104 535
104 679
104 688
104 824
104 841
105 149
105 202
105 576
105 616
105 772
105 885
106 319
106 360
106 478
106 519
106 859
106 981
107 275
107 327
107 625
107 652
107 671
107 689
107 826
107 835
107 878
107 951
108 204
108 317
108 405
108 773
108 865
108 973
109 165
109 259
109 428
109 496
109 514
109 545
109 588
109 663
109 667
109 736
109 825
109 914
109 943
110 329
110 389
110 436
110 454
110 502
110 553
110 566
110 622
110 652
110 729
110 819
110 844
110 948
110 998
111 366
111 515
111 607
111 629
111 913
111 941
112 134
112 366
112 676
112 792
112 808
112 859
112 887
112 980
112 994
113 199
113 315
113 386
113 498
113 539
113 561
113 668
113 683
113 694
113 722
113 743
114 163
114 171
114 184
114 233
114 365
114 478
114 610
114 671
114 689
114 741
114 830
114 844
114 884
115 174
115 216
115 257
115 385
115 392
115 448
115 457
115 529
115 541
115 560
115 716
115 751
115 794
115 872
115 911
116 370
116 459
116 487
116 525
116 796
116 815
117 128
117 220
117 489
117 564
117 666
117 670
117 718
117 738
117 913
117 914
117 986
118 165
118 384
118 419
118 459
118 565
118 617
118 721
118 820
118 857
118 905
119 251
119 295
119 322
119 344
119 350
119 409
119 618
119 763
119 797
119 990
120 167
120 191
120 197
120 492
120 637
120 756
120 930
120 964
121 147
121 201
121 215
121 280
121 311
121 397
121 711
121 823
121 975
122 132
122 179
122 246
122 296
122 335
122 389
122 509
122 545
122 603
122 714
122 725
122 795
123 255
123 274
123 305
123 624
123 689
123 866
124 173
124 625
124 652
124 765
124 826
124 835
124 851
124 950
125 465
125 654
125 657
125 678
125 843
125 868
126 141
126 252
126 295
126 309
126 322
126 350
126 389
126 409
126 618
127 143
127 503
127 519
127 531
127 535
127 554
127 591
127 598
127 640
127 643
127 828
127 855
127 932
128 210
128 249
128 341
128 375
128 430
128 435
128 578
128 611
128 805
128 809
128 975
129 243
129 271
129 331
129 602
129 630
129 640
129 759
129 944
129 955
130 520
130 556
130 595
130 697
130 810
130 834
130 919
130 958
131 361
131 388
131 582
131 612
131 619
131 716
131 770
131 800
131 801
131 952
132 179
132 220
132 296
132 315
132 322
132 335
132 389
132 509
132 525
132 545
132 725
132 735
132 795
133 148
133 151
133 170
133 223
133 256
133 283
133 336
133 553
133 593
133 610
133 712
133 792
133 807
133 809
133 879
133 886
133 922
133 937
134 178
134 280
134 286
134 455
134 676
134 808
134 816
134 817
134 887
135 276
135 312
135 426
135 523
135 771
135 893
135 894
135 897
136 164
136 234
136 343
136 456
136 468
136 669
136 877
137 150
137 303
137 307
137 479
137 538
137 698
137 726
137 737
137 740
137 816
137 921
138 260
138 287
138 501
138 508
138 563
138 669
138 891
138 929
139 154
139 364
139 489
139 546
139 764
139 945
140 209
140 225
140 404
140 573
140 613
140 785
140 832
140 842
140 903
141 208
141 251
141 295
141 313
141 322
141 350
141 394
141 409
141 618
141 699
142 399
142 470
142 668
142 701
142 728
142 891
142 979
143 434
143 503
143 531
143 554
143 598
143 643
143 816
143 855
143 918
144 153
144 258
144 604
144 653
144 723
144 739
144 799
144 874
145 385
145 429
145 484
145 758
145 831
145 836
145 873
145 880
145 900
145 937
145 978
145 994
146 316
146 359
146 410
146 549
146 579
146 677
146 853
147 280
147 311
147 328
147 491
147 707
147 711
147 823
147 893
148 151
148 305
148 336
148 482
148 506
148 553
148 792
149 202
149 241
149 616
149 657
149 772
149 885
149 959
149 993
150 345
150 352
150 446
150 510
150 530
150 592
150 647
150 692
150 710
150 743
150 803
150 918
150 991
151 233
151 256
151 283
151 355
151 610
151 791
151 792
152 266
152 299
152 408
152 444
152 576
152 611
152 672
152 677
152 680
153 258
153 395
153 401
153 478
153 653
153 739
153 797
153 799
153 874
154 310
154 323
154 359
154 450
154 605
154 685
154 732
154 902
155 300
155 326
155 678
155 712
155 828
155 933
155 947
156 261
156 393
156 437
156 469
156 485
156 568
156 681
156 703
156 846
156 983
157 166
157 169
157 311
157 373
157 693
157 770
157 819
157 909
157 934
157 960
158 229
158 278
158 303
158 358
158 672
158 780
158 864
158 893
158 997
158 998
159 453
159 529
159 562
159 632
159 644
159 677
159 690
160 584
160 640
160 812
160 813
161 349
161 369
161 378
161 581
161 810
161 814
161 876
161 937
161 953
162 176
162 343
162 448
162 659
162 715
162 825
163 171
163 341
163 365
163 372
163 454
163 466
163 478
163 671
163 741
163 830
163 925
163 988
164 265
164 343
164 456
164 468
164 632
164 661
164 877
164 891
164 932
164 987
165 311
165 428
165 496
165 514
165 663
165 867
165 943
166 169
166 292
166 373
166 770
166 819
166 909
166 934
166 949
166 960
166 998
167 218
167 227
167 228
167 348
167 509
167 630
167 634
167 642
167 682
167 686
167 698
167 754
167 862
168 247
168 352
168 685
168 839
168 863
168 924
169 277
169 373
169 520
169 770
169 819
169 921
169 934
169 960
170 229
170 297
170 321
170 375
170 379
170 544
170 550
170 583
170 798
170 804
170 837
170 845
170 854
170 855
170 998
171 365
171 478
171 671
171 741
171 830
172 198
172 229
172 366
172 522
172 650
172 727
172 911
172 974
173 237
173 245
173 380
173 467
173 730
173 733
173 760
173 861
173 962
174 392
174 446
174 457
174 541
174 560
174 751
174 794
174 872
174 967
175 401
175 437
175 447
175 712
175 742
175 749
175 917
175 918
175 977
175 982
176 372
176 401
176 448
176 449
176 535
176 659
176 969
177 202
177 241
177 334
177 357
177 435
177 616
177 860
177 885
178 676
178 817
178 830
178 996
179 296
179 335
179 389
179 509
179 553
179 725
179 795
179 834
180 213
180 217
180 314
180 340
180 387
180 499
180 548
180 648
180 881
181 199
181 330
181 475
181 495
181 505
181 577
181 603
181 840
181 919
181 970
182 184
182 199
182 279
182 325
182 391
182 422
182 443
182 645
182 657
182 672
182 730
182 735
182 854
182 883
182 943
183 193
183 201
183 211
183 334
183 345
183 752
183 790
183 802
183 959
183 969
184 273
184 279
184 488
184 570
184 623
184 673
184 710
184 719
184 724
184 940
185 316
185 359
185 410
185 579
185 760
185 781
185 790
186 207
186 222
186 228
186 286
186 399
186 527
186 528
186 534
186 546
186 631
186 989
187 202
187 323
187 354
187 383
187 406
187 440
187 483
187 542
187 646
187 813
187 877
187 938
188 236
188 292
188 484
188 558
188 562
188 736
188 942
189 229
189 358
189 455
189 477
189 532
189 604
189 626
189 687
189 845
189 907
189 925
189 931
190 246
190 328
190 342
190 662
190 665
190 813
190 951
190 966
190 972
191 492
191 637
191 861
191 964
191 983
192 351
192 354
192 640
192 720
192 746
192 851
192 906
192 920
193 200
193 232
193 371
193 415
193 441
193 458
193 482
193 633
193 635
194 282
194 367
194 376
194 407
194 557
194 595
194 660
194 702
194 839
194 863
194 923
194 969
195 214
195 241
195 257
195 270
195 309
195 365
195 398
195 411
195 571
195 596
195 684
195 742
195 815
195 849
195 888
195 957
195 994
196 219
196 371
196 667
196 754
196 774
196 777
196 824
196 957
197 310
197 492
197 637
197 646
197 647
197 869
198 328
198 329
198 339
198 448
198 464
198 500
198 515
198 522
198 575
198 635
198 650
198 727
198 831
198 911
198 926
198 974
199 325
199 391
199 422
199 443
199 572
199 645
199 883
200 232
200 241
200 274
200 415
200 441
200 458
200 482
200 507
200 519
200 633
200 635
200 789
201 211
201 334
201 374
201 527
201 573
201 620
201 675
201 709
201 740
201 752
201 790
201 844
201 910
201 959
201 969
202 241
202 262
202 270
202 357
202 520
202 616
202 772
202 885
202 954
203 242
203 357
203 368
203 377
203 402
203 644
203 696
203 895
203 909
203 935
204 254
204 521
204 534
204 552
204 786
204 797
204 850
204 935
204 984
205 464
205 562
205 584
205 682
205 701
205 923
206 227
206 403
206 537
206 691
206 695
206 838
206 839
206 860
206 937
207 222
207 266
207 286
207 404
207 527
207 528
207 534
207 631
207 647
207 770
208 214
208 251
208 252
208 295
208 350
208 467
208 549
208 705
208 761
208 990
209 216
209 225
209 269
209 299
209 404
209 425
209 563
209 613
209 620
209 842
209 903
209 907
210 249
210 554
210 578
210 598
210 623
210 764
210 773
210 955
211 306
211 334
211 552
211 675
211 709
211 752
211 790
211 883
211 935
211 959
211 969
212 238
212 567
212 600
212 702
212 783
212 832
212 938
213 314
213 340
213 387
213 548
213 574
213 661
214 257
214 270
214 309
214 354
214 398
214 569
214 571
214 680
214 878
214 888
214 962
214 994
215 300
215 313
215 336
215 363
215 382
215 531
215 566
215 767
215 784
215 807
215 830
215 946
215 949
215 979
215 989
216 225
216 404
216 423
216 613
216 783
217 340
217 465
217 654
217 657
217 700
217 725
217 830
217 843
217 868
217 884
217 971
218 227
218 228
218 348
218 593
218 630
218 642
218 697
218 863
218 988
219 667
219 734
219 754
219 774
219 777
219 845
220 259
220 540
220 564
220 593
220 666
220 670
220 718
220 738
220 775
220 787
220 913
220 986
221 238
221 384
221 567
221 600
221 783
221 849
221 890
221 891
222 286
222 399
222 527
222 534
222 631
223 227
223 230
223 277
223 289
223 485
223 488
223 563
223 612
223 638
223 715
223 724
223 967
224 354
224 483
224 517
224 646
224 722
224 884
224 916
224 938
225 239
225 404
225 468
225 662
225 842
225 903
225 970
226 339
226 445
226 462
226 515
226 607
226 629
226 744
226 802
227 228
227 348
227 628
227 630
227 634
227 642
227 698
227 843
227 900
228 259
228 348
228 466
228 630
228 634
228 642
228 705
229 358
229 426
229 493
229 672
229 780
229 827
229 864
229 882
229 893
229 997
230 463
230 612
230 638
230 715
230 724
230 755
230 967
230 973
231 285
231 408
231 439
231 460
231 628
231 636
231 691
231 785
231 961
232 441
232 458
232 482
232 633
232 635
232 731
232 799
233 255
233 320
233 347
233 408
233 423
233 425
233 747
233 763
233 847
233 871
233 960
234 318
234 327
234 850
234 898
234 899
235 406
235 440
235 512
235 572
235 684
235 818
235 977
236 292
236 297
236 484
236 485
236 552
236 558
236 601
236 713
236 714
236 736
236 942
237 245
237 380
237 664
237 730
237 733
237 861
238 425
238 567
238 600
238 783
238 826
238 832
238 849
238 890
239 240
239 244
239 291
239 555
239 609
239 767
240 244
240 291
240 555
240 609
240 648
240 904
241 262
241 337
241 357
241 413
241 433
241 885
242 280
242 355
242 402
242 430
242 644
242 895
243 247
243 257
243 271
243 331
243 399
243 459
243 602
243 759
243 763
243 797
243 944
243 955
244 321
244 494
244 538
244 555
244 627
244 767
244 792
244 904
245 263
245 380
245 467
245 498
245 725
245 730
245 733
245 760
245 861
246 322
246 328
246 351
246 567
246 662
246 665
246 813
246 914
246 951
246 966
246 972
247 352
247 511
247 839
247 863
247 924
248 507
248 526
248 532
248 601
248 679
248 688
248 811
248 841
249 333
249 341
249 496
249 797
249 805
249 975
250 421
250 519
250 542
250 577
250 630
250 862
251 295
251 322
251 336
251 350
251 409
251 558
251 587
251 593
251 618
251 699
251 705
251 732
251 779
251 797
252 322
252 350
252 409
252 549
252 615
252 618
252 705
252 770
252 779
252 897
253 370
253 372
253 448
253 535
253 567
253 659
253 677
254 304
254 374
254 445
254 521
254 557
254 680
254 744
254 775
254 786
254 797
254 847
254 892
254 896
254 935
254 984
255 263
255 274
255 305
255 317
255 624
255 689
255 759
255 862
255 866
255 993
256 283
256 520
256 522
256 553
256 669
256 792
256 807
256 874
256 879
256 922
257 270
257 309
257 398
257 401
257 571
257 888
257 994
258 395
258 678
258 739
258 799
258 874
259 268
259 269
259 311
259 326
259 386
259 476
259 540
259 568
259 687
259 750
259 886
260 277
260 501
260 508
260 563
260 597
260 669
260 756
260 825
260 836
260 929
260 944
261 299
261 383
261 407
261 437
261 447
261 485
261 681
261 703
261 747
261 813
261 846
261 983
262 616
262 620
262 772
262 885
263 305
263 414
263 444
263 624
263 689
263 923
263 993
264 364
264 435
264 489
264 546
264 595
264 597
264 708
264 764
264 875
264 945
264 956
265 315
265 343
265 456
265 468
265 661
265 795
265 877
265 932
265 987
266 299
266 444
266 466
266 680
266 854
266 989
267 300
267 375
267 397
267 412
267 413
267 495
267 664
267 670
267 713
267 886
267 896
267 910
267 913
267 923
267 996
268 327
268 386
268 433
268 540
268 568
268 687
268 750
269 476
269 540
269 568
269 750
269 776
269 999
270 287
270 309
270 367
270 398
270 571
270 839
270 888
270 994
271 354
271 602
271 759
271 919
271 944
271 955
272 284
272 306
272 333
272 338
272 486
272 620
272 680
272 912
272 962
273 276
273 279
273 570
273 623
273 632
273 637
273 673
273 710
273 719
273 789
273 818
273 940
274 624
274 689
274 711
274 866
275 468
275 625
275 652
275 710
275 878
275 950
276 312
276 426
276 462
276 500
276 523
276 875
276 897
276 955
277 498
277 501
277 508
277 669
277 825
278 422
278 434
278 677
278 690
278 753
279 369
279 570
279 623
279 710
279 719
279 940
280 311
280 409
280 491
280 633
280 707
280 711
280 750
280 823
281 332
281 536
281 599
281 639
281 927
281 956
282 367
282 376
282 407
282 411
282 557
282 660
282 702
282 877
282 923
283 336
283 403
283 553
283 627
283 792
283 807
283 841
283 922
284 301
284 338
284 620
284 912
284 962
285 373
285 418
285 439
285 539
285 574
285 587
285 628
285 636
285 656
285 691
285 732
285 785
285 803
285 901
285 902
286 399
286 527
286 534
286 554
286 631
286 778
286 930
286 993
287 369
287 388
287 438
287 739
287 761
287 788
287 820
287 833
287 879
287 976
288 300
288 326
288 562
288 694
288 828
288 908
288 947
289 342
289 346
289 396
289 418
289 429
289 745
289 822
289 829
289 884
290 315
290 370
290 456
290 694
290 722
290 816
291 494
291 555
291 599
291 609
291 627
291 767
291 883
291 904
292 484
292 558
292 601
292 736
292 942
293 377
293 472
293 490
293 809
293 829
293 841
293 856
293 889
293 943
293 981
293 989
293 999
294 319
294 325
294 340
294 360
294 519
294 569
294 591
294 614
294 710
294 859
294 872
294 877
294 981
295 298
295 322
295 350
295 549
295 555
295 643
295 779
296 335
296 389
296 509
296 545
296 720
296 725
296 795
296 981
297 321
297 379
297 433
297 550
297 583
297 592
297 680
297 798
297 837
297 854
298 350
298 394
298 409
298 510
298 699
298 751
298 752
298 779
298 793
298 884
298 888
299 444
299 466
299 576
299 657
299 663
299 680
299 715
299 989
300 326
300 344
300 432
300 597
300 707
300 824
300 828
300 870
300 908
300 947
301 390
301 440
301 464
301 517
301 543
301 619
301 648
301 812
301 931
301 952
301 978
301 999
302 344
302 386
302 551
302 601
302 608
302 706
302 717
302 804
302 811
302 893
302 933
302 939
303 307
303 352
303 416
303 479
303 544
303 561
303 591
303 726
303 740
303 921
304 315
304 374
304 445
304 521
304 756
304 775
304 786
304 797
304 854
304 935
304 958
304 984
305 624
305 866
306 338
306 962
307 416
307 479
307 531
307 578
307 642
307 726
307 737
307 740
307 754
307 816
307 921
307 991
308 411
308 457
308 469
308 490
308 559
308 658
308 671
308 674
308 867
308 992
309 323
309 329
309 398
309 571
309 667
309 708
309 888
309 994
310 323
310 367
310 415
310 428
310 450
310 478
310 480
310 604
310 605
310 612
310 732
310 882
311 397
311 707
311 711
311 754
311 823
312 352
312 586
312 863
312 897
313 587
313 946
313 949
314 340
314 387
314 421
314 499
314 546
314 547
314 548
314 881
314 908
314 988
315 498
315 539
315 683
315 694
315 722
315 754
315 786
315 876
315 881
315 915
316 484
316 781
316 853
317 405
317 446
317 536
317 603
317 692
317 766
317 773
317 918
317 973
318 327
318 420
318 590
318 850
318 894
318 975
319 360
319 380
319 519
319 565
319 591
319 597
319 614
319 859
319 911
319 957
319 981
320 408
320 423
320 425
320 487
320 531
320 747
320 847
320 871
320 937
321 379
321 396
321 426
321 475
321 544
321 550
321 583
321 777
321 795
321 798
321 837
321 854
322 350
322 402
322 409
322 549
322 615
322 618
322 699
322 705
322 779
322 803
322 990
323 350
323 390
323 450
323 480
323 605
323 701
323 714
323 732
323 882
324 473
324 562
324 584
324 696
324 790
324 811
324 914
325 391
325 422
325 428
325 443
325 697
325 751
325 883
326 404
326 541
326 616
326 870
326 947
327 590
327 738
327 850
327 894
327 898
327 899
328 416
328 662
328 813
328 870
328 951
328 966
328 968
328 972
329 436
329 454
329 502
329 622
329 684
329 729
329 998
330 396
330 475
330 505
330 551
330 577
330 593
330 840
330 912
330 919
330 970
330 998
331 353
331 759
331 955
331 986
332 503
332 561
332 599
332 639
332 648
332 676
332 724
332 891
332 927
332 956
332 974
333 620
333 912
334 347
334 611
334 675
334 709
334 752
334 790
334 959
334 969
335 389
335 509
335 545
335 718
335 725
335 795
335 821
335 836
336 442
336 607
336 610
336 792
337 362
337 420
337 433
337 575
337 576
337 686
337 768
337 824
337 963
337 985
337 988
338 486
338 520
338 620
338 912
338 962
339 384
339 550
339 565
339 699
339 700
339 721
339 725
339 905
340 387
340 499
340 547
340 548
340 881
341 553
341 625
341 639
341 805
342 346
342 418
342 573
342 745
342 765
342 822
342 829
342 884
343 456
343 468
343 661
343 877
343 987
344 551
344 608
344 706
344 804
345 384
345 398
345 510
345 530
345 592
345 647
345 692
345 743
345 803
345 991
346 396
346 418
346 441
346 522
346 745
346 758
346 794
346 822
346 829
346 855
346 884
347 408
347 423
347 425
347 837
347 847
347 871
348 630
348 642
348 698
348 719
348 855
349 370
349 378
349 581
349 595
349 810
349 814
349 928
349 953
350 387
350 388
350 394
350 409
350 491
350 549
350 615
350 618
350 651
350 699
350 705
350 779
350 990
351 461
351 475
351 513
351 640
351 697
351 746
351 774
351 782
351 906
352 430
352 481
352 511
352 560
352 704
352 708
352 839
352 863
352 924
352 964
353 424
353 432
353 446
353 452
353 524
353 528
353 621
353 776
354 384
354 483
354 557
354 582
354 644
354 646
354 916
354 938
354 946
355 368
355 402
355 430
355 644
355 696
355 991
356 458
356 500
356 554
356 596
356 641
356 685
356 699
356 731
356 765
356 769
356 878
356 980
357 616
357 772
357 862
357 885
358 672
358 780
358 827
358 975
359 410
359 786
359 853
360 580
360 614
360 859
360 904
360 981
361 388
361 506
361 582
361 590
361 766
361 767
361 782
361 940
361 952
362 433
362 686
362 824
362 863
362 963
362 985
362 988
363 382
363 566
363 784
363 946
363 949
364 422
364 435
364 489
364 546
364 764
364 875
365 398
365 478
365 671
365 741
365 792
365 801
365 830
366 508
366 587
366 732
366 808
366 817
366 887
367 376
367 407
367 557
367 660
367 662
367 702
367 923
368 430
368 433
368 444
368 644
368 696
368 895
369 375
369 438
369 706
369 709
369 719
369 761
369 788
369 820
369 833
369 976
370 431
370 459
370 487
370 525
370 538
370 763
370 796
371 667
371 734
371 754
371 774
371 777
371 860
372 448
372 449
372 516
372 535
372 659
372 955
373 412
373 580
373 642
373 767
373 770
373 819
373 960
374 521
374 786
374 797
374 886
374 935
375 495
375 664
375 713
375 886
375 910
375 996
376 407
376 557
376 660
376 702
376 802
376 923
377 656
377 806
377 856
377 889
378 541
378 581
378 612
378 677
378 810
378 885
378 928
379 516
379 550
379 583
379 798
379 807
379 837
379 854
379 885
380 382
380 430
380 467
380 730
380 733
380 760
380 781
380 900
380 933
381 569
381 605
381 762
381 948
381 956
381 986
382 566
382 946
382 949
382 977
383 437
383 485
383 586
383 846
384 419
384 483
384 565
384 700
384 721
384 905
385 429
385 468
385 873
385 880
385 900
385 922
386 390
386 476
386 540
386 568
386 687
386 750
386 836
387 547
387 548
387 789
387 846
387 881
387 921
388 506
388 516
388 582
388 716
388 737
388 749
388 790
388 800
388 801
388 952
389 509
389 584
389 725
389 795
389 973
390 440
390 456
390 463
390 464
390 517
390 538
390 543
390 619
390 649
390 812
390 881
390 978
390 999
391 422
391 443
391 511
392 457
392 529
392 541
392 739
392 751
392 777
392 794
393 460
393 473
393 492
393 651
393 712
393 935
393 965
393 968
394 699
395 557
395 610
395 739
395 799
395 844
395 874
396 418
396 525
396 745
396 822
396 829
396 864
396 868
396 884
397 491
397 652
397 711
397 737
397 741
397 792
398 725
398 994
399 528
399 534
399 631
399 778
400 526
400 688
400 765
400 841
400 899
401 653
401 799
401 874
402 540
402 644
402 696
403 537
403 597
403 599
403 611
403 673
403 695
403 740
403 748
403 838
403 848
403 873
403 937
404 613
404 903
405 536
405 603
405 645
405 766
405 773
405 821
405 973
406 446
406 512
406 572
406 818
406 982
407 557
407 600
407 660
407 702
407 923
407 969
408 423
408 425
408 847
408 871
409 699
409 705
409 885
409 994
410 579
410 621
410 781
410 825
410 853
410 857
410 874
411 533
411 569
411 658
411 674
411 682
411 867
411 992
412 495
412 664
412 686
412 713
412 886
412 910
412 927
412 996
413 664
413 713
413 886
413 910
413 996
414 427
414 470
414 538
414 557
414 791
414 793
414 844
414 953
415 441
415 458
415 635
415 915
416 479
416 726
416 740
416 799
416 816
416 921
417 451
417 573
417 693
417 832
417 860
417 902
417 973
418 608
418 745
418 822
418 829
418 884
418 910
418 996
419 565
419 617
419 721
419 741
419 905
420 433
420 575
420 665
420 686
420 824
420 963
420 985
420 988
421 504
421 518
421 541
421 663
421 797
421 862
421 980
422 443
422 798
422 883
422 897
423 425
423 747
423 847
423 890
424 452
424 524
424 621
424 776
424 890
424 908
424 954
424 995
425 832
425 847
425 871
425 897
426 523
426 586
426 853
426 897
426 952
427 470
427 791
427 793
427 844
428 496
428 514
428 588
428 597
428 663
429 758
429 822
429 836
429 851
429 858
429 873
429 880
429 900
430 530
430 644
430 696
430 852
430 895
431 487
431 525
431 538
431 763
431 796
431 977
432 828
432 870
432 908
432 947
432 955
433 465
433 564
433 575
433 637
433 686
433 768
433 824
433 963
433 985
433 988
434 453
434 677
434 690
434 753
434 902
435 489
435 546
435 547
435 597
435 685
435 737
435 845
435 855
435 945
436 454
436 502
436 729
436 998
437 485
437 510
437 521
437 681
437 703
437 846
437 918
437 983
438 666
438 675
438 761
438 820
438 833
438 976
439 449
439 574
439 587
439 628
439 636
439 651
439 691
439 785
439 901
439 924
439 948
440 517
440 619
440 641
440 812
440 869
440 920
440 978
440 999
441 458
441 478
441 482
441 572
441 633
441 635
441 685
441 724
441 734
441 860
442 567
442 569
442 712
442 756
442 762
442 947
442 948
443 444
443 533
443 565
443 590
443 645
443 654
443 883
444 466
444 576
444 607
444 680
444 966
444 989
445 521
445 786
445 797
445 814
445 875
445 892
445 896
445 935
445 984
445 997
446 512
446 572
446 684
446 818
446 999
447 471
447 551
447 742
447 814
447 917
447 977
448 449
448 535
448 594
449 453
449 516
449 535
449 659
449 973
450 480
450 504
450 532
450 605
450 613
450 732
450 751
450 882
451 573
451 649
451 668
451 693
451 720
451 860
451 902
451 923
452 497
452 510
452 524
452 621
452 776
452 838
452 857
452 995
453 632
453 677
453 690
453 753
453 771
453 911
454 486
454 502
454 729
454 854
454 998
455 477
455 604
455 626
455 779
455 790
455 845
455 931
456 468
456 471
456 509
456 626
456 661
456 877
456 932
456 985
456 987
457 529
457 541
457 560
457 751
457 794
457 872
457 960
458 482
458 633
458 635
459 487
459 538
459 763
459 847
460 473
460 594
460 651
460 711
460 712
460 965
461 513
461 640
461 746
461 782
461 811
461 906
461 920
462 515
462 607
462 629
462 655
462 802
462 941
463 488
463 612
463 724
463 731
463 755
463 963
463 967
464 517
464 619
464 812
464 978
464 999
465 649
465 654
465 657
465 843
465 868
465 971
466 576
466 680
466 989
467 730
467 733
467 760
467 861
467 878
467 930
468 661
468 877
468 932
468 987
468 992
469 525
469 658
469 674
469 992
470 589
470 655
470 704
470 793
470 844
471 478
471 698
471 742
471 749
471 917
471 918
471 977
471 982
472 588
472 809
472 856
472 976
473 585
473 651
473 665
473 709
473 712
473 965
474 668
474 701
474 735
474 961
474 979
475 505
475 528
475 538
475 570
475 577
475 593
475 740
475 840
475 894
475 919
475 970
476 512
476 540
476 568
476 687
476 750
476 753
477 552
477 604
477 626
477 672
477 780
477 845
477 907
477 925
478 671
478 741
478 830
479 577
479 607
479 726
479 737
479 740
479 789
479 816
479 872
479 921
480 605
480 606
480 732
481 531
481 708
481 712
481 839
481 863
481 924
483 573
483 646
483 756
483 916
483 938
483 953
484 558
484 601
484 736
484 924
484 942
484 969
485 589
485 596
485 681
485 703
485 776
485 783
485 846
485 983
485 990
486 521
486 912
486 962
487 525
487 538
487 554
487 796
487 836
487 857
488 612
488 638
488 695
488 724
488 755
488 849
488 914
488 967
488 994
489 546
489 585
489 764
489 875
489 945
490 674
490 855
490 867
490 992
491 688
491 707
491 795
491 823
492 985
493 633
493 672
493 780
493 827
493 864
493 893
493 997
494 555
494 609
494 627
494 738
495 664
495 713
495 854
495 886
495 910
495 973
495 996
496 514
496 588
496 943
497 524
497 621
497 632
497 776
497 777
498 694
498 697
498 722
498 723
498 915
499 548
499 575
499 656
499 881
500 596
500 641
500 685
500 731
500 765
500 769
500 829
501 508
501 563
501 789
501 825
501 929
502 588
502 729
502 998
503 531
503 554
503 560
503 598
503 640
503 734
503 855
504 542
504 805
504 862
504 985
505 577
505 675
505 819
505 840
505 919
506 582
506 800
506 801
506 952
506 965
506 973
507 526
507 532
507 570
507 581
507 606
507 869
508 517
508 606
508 669
508 929
509 545
509 725
509 795
509 812
509 942
510 530
510 639
510 647
510 676
510 692
510 743
510 803
510 967
511 749
511 839
511 863
511 924
512 516
512 572
512 684
512 733
512 784
512 818
512 992
513 541
513 640
513 667
513 746
513 782
514 588
514 663
514 861
514 922
514 943
515 607
515 629
515 744
515 802
515 941
516 535
516 546
516 659
516 938
517 543
517 619
517 812
517 824
517 863
517 999
518 542
518 644
518 849
518 862
519 591
519 614
519 859
519 981
520 556
520 595
520 697
520 757
520 815
520 834
520 865
520 948
520 958
521 646
521 775
521 786
521 797
521 935
522 650
522 813
522 831
522 911
522 974
523 526
523 771
523 789
523 897
523 948
524 621
524 776
524 857
524 995
525 763
525 796
525 822
526 532
526 540
526 578
526 606
526 679
526 688
526 841
526 848
526 865
526 889
527 534
527 617
527 631
528 534
528 631
528 778
529 541
529 560
529 621
529 751
529 794
530 638
530 671
530 692
530 743
530 803
531 554
531 598
531 603
531 643
531 647
531 855
532 606
532 679
532 800
533 658
533 992
534 580
534 631
534 778
535 659
535 937
535 942
536 676
536 766
536 773
536 821
536 837
536 973
537 695
537 748
537 835
537 838
537 848
537 937
537 946
538 553
538 763
538 796
538 962
539 657
539 694
539 722
539 915
540 568
540 687
540 750
541 560
541 751
541 794
541 832
541 872
542 862
543 599
543 619
543 667
543 755
543 812
543 824
543 978
543 999
544 550
544 837
544 854
545 567
545 725
545 726
545 795
545 976
546 597
546 762
546 764
546 875
546 945
546 975
548 590
548 653
548 881
549 699
549 908
549 990
550 583
550 590
550 798
550 837
550 854
551 608
551 706
551 717
551 777
551 804
552 604
552 676
552 845
552 907
552 925
552 931
553 610
553 792
553 807
553 879
553 883
553 886
553 909
553 922
554 598
554 855
555 627
555 767
555 942
556 592
556 595
556 697
556 757
556 834
556 865
557 660
557 702
557 772
557 885
557 923
558 569
558 601
558 679
558 714
558 736
558 942
559 668
559 701
559 848
559 961
560 751
560 786
560 794
560 867
561 599
561 648
561 891
562 584
562 682
562 914
562 988
562 994
563 669
563 825
564 666
564 670
564 718
564 738
564 787
564 913
564 986
565 617
565 700
565 721
565 905
565 971
566 784
566 946
566 949
567 600
567 761
567 781
567 783
567 832
567 849
567 890
568 750
569 756
569 762
569 948
569 996
570 623
570 673
570 710
570 719
570 899
570 940
571 657
571 788
571 888
571 994
572 751
572 818
572 905
573 649
573 693
573 720
573 739
573 860
573 902
573 936
574 587
574 628
574 636
574 691
574 785
574 901
575 686
575 768
575 788
575 824
575 963
575 985
575 988
576 674
576 680
576 989
577 593
577 963
578 611
578 654
578 701
578 732
578 751
578 805
578 963
579 781
579 798
579 853
580 765
580 770
580 819
580 900
580 934
580 960
581 618
581 810
581 814
581 842
581 876
581 928
581 953
582 586
582 613
582 716
582 800
582 801
582 842
582 952
583 854
583 926
584 624
584 682
584 754
584 811
584 819
584 914
585 651
585 712
586 721
586 789
586 897
587 636
587 785
587 901
588 943
589 621
589 655
589 704
589 793
589 844
589 965
589 981
590 629
590 850
590 884
590 894
590 898
590 899
590 915
590 971
591 981
592 647
592 692
592 743
592 803
592 906
592 927
592 928
592 931
592 991
593 803
593 840
593 919
593 970
594 712
595 610
595 697
595 757
595 764
595 815
595 834
595 865
595 958
596 641
596 685
596 731
596 765
596 769
596 795
596 876
596 980
597 764
597 797
597 875
598 688
598 712
598 765
598 855
599 639
599 648
599 702
599 751
599 891
599 927
599 956
600 759
600 783
600 832
600 849
601 714
601 736
601 776
601 927
601 942
602 652
602 831
602 955
603 766
603 773
603 821
603 973
604 710
604 845
604 907
604 925
604 931
605 653
605 732
605 882
605 921
606 679
606 688
606 841
606 999
607 629
607 744
607 802
607 941
608 706
608 933
608 939
609 767
609 846
610 780
610 792
610 807
610 879
610 922
610 935
611 891
611 975
612 646
612 724
612 755
612 967
613 725
613 842
613 903
614 745
614 859
614 981
614 999
615 699
615 701
615 988
615 990
616 719
616 772
616 985
617 690
617 700
617 721
618 634
618 705
618 858
618 971
618 990
619 999
620 912
620 962
621 776
621 782
621 857
621 954
621 995
622 697
622 700
622 729
622 998
623 673
623 710
623 719
623 725
623 940
624 689
624 849
624 866
624 993
625 652
625 661
625 693
625 769
625 826
625 835
625 878
625 950
626 777
626 802
626 845
626 907
626 921
626 925
626 931
627 767
627 902
628 691
628 721
628 901
629 693
629 724
629 744
629 802
629 941
630 634
630 642
630 698
630 757
630 794
630 977
631 778
631 916
631 948
631 995
632 677
632 753
633 635
633 724
633 843
634 639
634 642
634 698
634 882
635 729
635 803
636 648
636 764
636 785
636 856
636 871
637 869
637 930
637 997
638 715
638 724
638 755
638 967
639 927
639 956
640 746
640 782
640 906
640 920
640 945
641 685
641 731
641 765
641 769
641 980
643 855
644 696
644 852
644 895
644 911
645 703
645 751
645 883
646 883
646 916
646 938
647 692
647 743
647 803
647 991
648 717
648 891
648 927
649 693
649 860
649 902
649 936
650 721
650 831
650 911
650 974
651 712
651 769
651 965
652 826
652 835
652 878
652 917
652 950
653 721
653 723
653 795
653 799
653 874
654 657
654 678
654 843
654 868
654 907
654 921
654 971
655 710
655 711
655 791
655 793
655 844
656 856
656 889
656 951
657 678
657 843
657 868
657 971
658 766
658 823
658 992
659 901
660 702
660 807
660 923
661 877
661 987
662 665
662 702
662 753
662 813
662 849
662 896
662 951
662 966
662 968
662 972
662 998
664 729
664 754
664 842
664 886
664 910
664 996
665 813
665 951
665 966
665 972
666 670
666 738
666 787
666 913
666 986
667 754
667 774
667 777
668 701
668 728
668 735
668 961
668 979
669 825
670 913
670 963
670 967
670 970
670 986
671 741
671 830
671 834
672 676
672 741
672 780
672 802
672 827
672 855
672 864
672 890
672 893
672 964
672 997
673 710
673 940
674 867
675 709
675 752
675 790
675 959
675 969
676 817
676 887
677 690
677 753
678 843
678 868
679 775
679 841
680 989
681 820
681 911
681 983
682 721
682 811
682 914
683 694
683 704
683 722
684 951
685 731
685 765
685 769
685 980
686 768
686 824
686 850
686 963
686 985
687 750
687 751
688 806
688 841
688 904
689 866
689 993
691 785
691 946
692 743
692 803
692 975
693 720
693 860
693 902
693 936
693 991
694 915
695 838
695 848
695 937
696 797
696 852
696 888
696 895
697 757
697 815
697 834
697 865
697 958
700 721
700 905
701 728
701 735
701 745
701 809
701 877
701 923
701 961
701 979
702 923
702 979
703 771
703 777
703 846
703 983
704 793
704 801
704 844
706 804
706 846
706 896
706 933
707 823
707 858
708 790
708 839
708 863
709 752
709 790
709 959
709 969
710 866
710 876
710 940
711 823
712 799
712 829
712 906
712 963
712 965
713 818
713 853
713 910
713 996
714 942
715 724
715 755
715 967
716 801
716 952
717 839
717 933
717 937
717 939
718 738
718 913
718 951
718 986
719 769
719 940
720 860
720 902
720 936
721 854
721 884
721 905
722 915
722 930
723 739
723 799
723 874
723 883
724 755
724 818
724 837
724 967
725 795
725 839
726 737
726 740
726 816
726 921
726 950
727 831
727 911
728 735
728 748
728 979
729 878
729 923
729 998
730 760
730 844
731 765
731 769
731 835
731 980
732 735
732 864
732 882
732 903
733 760
734 754
734 774
734 777
734 945
734 957
735 881
735 961
735 979
736 942
737 740
737 816
737 899
737 921
738 806
738 913
738 986
739 799
739 874
739 959
740 921
740 925
741 811
741 830
742 749
742 917
742 918
742 977
742 982
743 762
743 803
743 990
743 991
744 802
744 925
744 941
745 785
745 822
745 829
745 882
745 884
746 760
746 782
746 831
746 906
746 920
747 847
747 871
748 848
748 856
748 937
748 986
749 917
749 920
749 977
751 794
751 845
751 872
751 999
752 790
752 959
752 969
753 855
753 902
754 774
754 777
754 852
754 957
754 967
755 967
756 762
756 907
756 948
757 815
757 834
758 796
758 836
758 851
758 880
758 900
759 944
760 861
761 788
761 820
761 894
761 976
762 948
762 969
763 953
764 874
764 875
764 945
765 769
765 980
766 773
766 821
766 973
767 772
767 904
768 824
768 963
768 985
768 988
769 869
769 954
769 980
770 780
770 819
770 934
770 960
771 789
773 821
773 849
773 973
774 777
774 957
775 780
775 786
775 797
775 935
775 942
775 984
775 993
776 857
776 947
776 954
776 968
776 995
777 889
777 957
780 824
780 827
780 864
780 893
780 911
780 997
781 853
781 904
781 936
782 906
782 920
783 832
783 849
783 890
784 946
784 949
785 870
785 901
785 943
786 789
786 797
786 892
786 896
786 935
786 984
787 837
787 913
787 986
788 820
788 833
788 976
789 897
789 946
790 949
790 959
790 969
790 986
791 793
791 844
792 807
792 879
792 922
792 999
793 844
793 929
793 951
793 962
797 804
797 885
797 892
797 896
797 935
797 943
797 984
798 837
798 854
798 935
799 874
800 821
800 952
801 844
801 952
802 927
803 902
803 909
803 991
804 933
804 939
805 913
806 856
806 889
807 879
807 922
808 817
808 827
809 856
809 889
809 974
810 814
810 876
810 928
810 953
812 978
812 999
813 951
813 966
813 972
814 876
814 928
814 953
815 834
816 921
817 886
817 887
819 822
819 909
819 960
820 833
820 976
821 973
822 829
822 884
823 848
823 895
824 924
824 963
824 971
824 985
824 988
826 835
826 950
827 844
827 864
827 893
827 997
828 870
828 908
828 947
829 843
829 884
829 939
830 895
830 952
831 911
831 974
832 849
832 890
832 956
834 865
834 958
834 992
835 950
836 856
836 858
836 873
836 880
836 900
837 854
838 848
838 937
839 863
839 924
840 871
840 970
842 903
843 868
843 960
843 971
845 907
845 925
845 931
846 919
847 871
848 937
848 953
849 890
850 894
850 898
850 899
850 949
850 973
851 873
851 880
851 900
852 895
852 977
856 889
857 907
858 873
858 889
858 900
859 981
860 902
860 913
860 936
862 865
862 984
863 924
863 977
864 893
864 997
865 958
866 993
869 964
870 872
873 880
873 897
873 900
875 945
875 983
876 953
876 962
877 932
877 940
877 987
879 922
880 900
884 946
885 954
885 981
886 996
887 889
887 948
887 969
888 994
889 898
891 951
892 896
892 935
893 997
894 899
896 935
896 984
898 899
900 911
901 977
902 936
903 929
906 920
906 968
907 925
907 931
909 934
909 960
910 996
910 998
911 926
911 974
912 962
913 986
916 938
917 918
917 943
917 963
917 977
917 982
918 977
922 934
925 931
925 944
927 940
927 956
927 972
928 953
928 954
930 964
931 998
932 987
935 984
939 940
944 955
946 949
947 977
948 974
948 988
950 981
950 996
951 952
951 966
951 968
951 972
953 990
954 995
959 969
960 967
961 979
963 985
963 988
964 986
966 968
968 972
969 988
977 982
978 999
