# LFR-like benchmark
# Nodes: 1000, Edges: 9489, Communities: 99
0 93
0 128
0 180
0 198
0 208
0 222
0 314
0 354
0 387
0 496
0 547
0 548
0 732
0 765
0 774
0 883
0 898
0 984
1 206
1 335
1 403
1 580
1 701
1 721
1 748
1 776
1 848
1 937
1 965
2 112
2 133
2 142
2 151
2 190
2 283
2 336
2 446
2 603
2 751
2 791
2 792
2 879
2 922
3 24
3 52
3 139
3 168
3 247
3 352
3 388
3 520
3 691
3 711
3 839
3 863
3 924
3 955
4 11
4 28
4 106
4 200
4 222
4 250
4 343
4 406
4 421
4 441
4 489
4 542
4 676
4 706
4 743
4 798
4 832
4 862
5 142
5 206
5 209
5 243
5 296
5 474
5 491
5 551
5 559
5 671
5 701
5 754
5 782
5 843
5 961
5 977
5 979
5 997
6 41
6 62
6 71
6 111
6 112
6 139
6 146
6 185
6 201
6 215
6 283
6 295
6 316
6 337
6 348
6 359
6 410
6 444
6 472
6 486
6 512
6 523
6 543
6 563
6 567
6 579
6 589
6 625
6 664
6 781
6 853
6 881
6 920
6 960
6 971
7 56
7 140
7 169
7 209
7 214
7 216
7 243
7 273
7 403
7 701
7 756
7 830
7 903
8 97
8 110
8 164
8 192
8 255
8 263
8 273
8 305
8 403
8 610
8 624
8 743
8 953
9 273
9 286
9 304
9 361
9 388
9 582
9 607
9 800
9 801
9 818
9 952
10 182
10 199
10 228
10 256
10 325
10 443
10 526
10 633
10 747
10 883
10 886
10 937
10 977
11 92
11 101
11 250
11 367
11 415
11 504
11 518
11 542
11 694
11 726
11 795
11 862
12 42
12 105
12 109
12 120
12 195
12 260
12 335
12 493
12 496
12 514
12 630
12 663
12 677
12 780
13 109
13 197
13 272
13 397
13 443
13 475
13 492
13 551
13 760
13 767
13 782
13 859
13 874
13 973
14 114
14 163
14 171
14 314
14 478
14 593
14 603
14 741
14 749
14 750
14 824
14 830
14 994
15 26
15 33
15 65
15 124
15 178
15 254
15 286
15 322
15 366
15 482
15 676
15 677
15 690
15 808
15 833
15 882
15 887
15 923
16 36
16 53
16 92
16 243
16 331
16 357
16 421
16 602
16 603
16 709
16 825
16 829
16 944
17 41
17 44
17 64
17 81
17 187
17 215
17 229
17 231
17 354
17 382
17 403
17 636
17 791
17 938
17 969
18 84
18 198
18 256
18 319
18 371
18 461
18 542
18 614
18 667
18 672
18 701
18 734
18 754
18 774
18 777
18 781
18 789
18 815
18 862
18 903
18 921
18 937
19 43
19 73
19 82
19 235
19 236
19 459
19 557
19 572
19 590
19 684
19 949
20 72
20 95
20 121
20 128
20 152
20 155
20 213
20 266
20 299
20 444
20 458
20 485
20 507
20 510
20 529
20 605
20 607
20 680
20 705
20 743
20 929
20 963
20 989
21 51
21 61
21 128
21 134
21 210
21 437
21 473
21 479
21 516
21 541
21 557
21 579
21 584
21 611
21 696
21 780
21 785
21 805
21 871
21 963
21 975
22 121
22 182
22 264
22 391
22 411
22 437
22 443
22 555
22 641
22 645
22 883
23 24
23 75
23 155
23 267
23 300
23 315
23 346
23 432
23 598
23 727
23 870
23 908
23 913
23 947
24 32
24 132
24 160
24 182
24 230
24 234
24 238
24 256
24 285
24 308
24 327
24 335
24 359
24 379
24 393
24 407
24 439
24 476
24 479
24 546
24 549
24 555
24 562
24 590
24 695
24 742
24 751
24 780
24 839
24 849
24 850
24 861
24 894
24 898
24 899
24 948
25 34
25 390
25 403
25 835
25 848
25 937
25 986
26 71
26 112
26 127
26 141
26 216
26 251
26 321
26 366
26 676
26 808
26 833
26 899
27 36
27 120
27 492
27 614
27 662
27 792
27 889
27 943
28 45
28 243
28 250
28 301
28 331
28 421
28 446
28 504
28 520
28 542
28 598
28 600
28 621
28 697
28 758
28 800
28 844
28 847
28 862
28 889
28 900
28 935
28 948
29 184
29 228
29 255
29 270
29 273
29 427
29 508
29 526
29 537
29 582
29 597
29 673
29 683
29 710
29 940
30 47
30 54
30 127
30 143
30 330
30 394
30 422
30 430
30 503
30 531
30 543
30 554
30 640
30 643
30 667
30 696
30 706
30 722
30 813
30 855
30 904
30 907
30 974
31 82
31 127
31 226
31 231
31 247
31 308
31 309
31 478
31 490
31 533
31 605
31 658
31 674
31 732
31 867
31 878
31 887
32 234
32 318
32 327
32 427
32 431
32 547
32 564
32 575
32 590
32 662
32 850
32 898
32 899
33 83
33 119
33 124
33 126
33 200
33 208
33 216
33 220
33 223
33 251
33 252
33 254
33 257
33 295
33 299
33 321
33 322
33 330
33 350
33 353
33 369
33 409
33 421
33 505
33 549
33 581
33 618
33 636
33 699
33 705
33 732
33 740
33 779
33 780
33 785
33 793
33 911
33 949
33 951
33 957
33 958
33 980
33 990
34 38
34 259
34 269
34 322
34 379
34 394
34 423
34 483
34 540
34 725
34 948
34 967
35 125
35 135
35 147
35 270
35 372
35 426
35 514
35 523
35 531
35 697
35 722
35 789
35 913
35 989
36 48
36 151
36 160
36 198
36 205
36 271
36 324
36 332
36 390
36 432
36 562
36 572
36 584
36 600
36 605
36 745
36 767
36 848
36 914
36 967
37 70
37 107
37 109
37 238
37 330
37 392
37 483
37 587
37 625
37 652
37 824
37 826
37 835
37 861
37 878
37 950
38 58
38 62
38 78
38 190
38 345
38 472
38 485
38 537
38 541
38 560
38 656
38 663
38 806
38 809
38 845
38 856
38 868
38 876
38 920
38 948
38 977
38 990
39 70
39 128
39 180
39 193
39 200
39 240
39 251
39 323
39 404
39 441
39 633
39 655
39 689
39 872
39 937
40 62
40 99
40 162
40 176
40 182
40 188
40 229
40 372
40 448
40 516
40 535
40 640
40 641
40 652
40 659
40 663
40 692
40 803
40 810
40 966
41 114
41 163
41 209
41 365
41 442
41 478
41 671
41 741
41 765
41 830
42 83
42 92
42 209
42 300
42 393
42 424
42 473
42 594
42 651
42 712
42 877
42 920
43 235
43 285
43 286
43 445
43 512
43 572
43 748
43 813
44 111
44 214
44 226
44 259
44 460
44 519
44 607
44 640
44 678
44 744
44 786
44 802
44 923
45 113
45 299
45 346
45 410
45 504
45 534
45 542
45 618
45 785
45 799
45 862
45 950
45 994
46 109
46 113
46 143
46 154
46 215
46 248
46 290
46 315
46 546
46 587
46 599
46 683
46 694
46 722
46 734
46 799
46 923
46 940
47 127
47 143
47 195
47 229
47 262
47 346
47 531
47 548
47 644
47 732
47 843
48 109
48 200
48 324
48 387
48 420
48 439
48 475
48 489
48 546
48 562
48 573
48 584
48 675
48 682
48 765
48 853
48 854
48 992
49 109
49 311
49 496
49 514
49 709
49 799
49 943
50 83
50 97
50 138
50 200
50 419
50 434
50 525
50 677
50 690
50 963
51 122
51 128
51 182
51 309
51 493
51 571
51 578
51 676
51 805
51 863
51 938
52 177
52 294
52 319
52 325
52 328
52 360
52 591
52 727
52 765
52 981
53 56
53 82
53 102
53 129
53 146
53 209
53 240
53 243
53 250
53 271
53 331
53 345
53 360
53 399
53 404
53 453
53 518
53 520
53 529
53 559
53 583
53 586
53 595
53 602
53 700
53 712
53 748
53 759
53 760
53 765
53 771
53 781
53 817
53 835
53 839
53 862
53 877
53 883
53 926
53 944
53 955
54 137
54 202
54 281
54 287
54 371
54 536
54 644
54 654
54 745
54 761
54 788
54 809
54 820
54 833
54 892
54 976
55 98
55 215
55 313
55 363
55 382
55 390
55 433
55 448
55 573
55 724
55 797
55 863
55 928
55 946
55 949
55 973
56 89
56 209
56 216
56 350
56 404
56 478
56 541
56 613
56 625
56 798
56 903
57 154
57 160
57 202
57 310
57 323
57 394
57 450
57 480
57 484
57 629
57 657
57 732
57 737
57 766
57 811
57 882
58 111
58 308
58 340
58 372
58 379
58 656
58 662
58 746
58 792
58 889
58 923
58 935
59 103
59 128
59 316
59 334
59 391
59 443
59 573
59 693
59 697
59 860
59 902
59 936
59 975
60 66
60 88
60 94
60 119
60 126
60 148
60 155
60 176
60 177
60 179
60 208
60 251
60 252
60 257
60 283
60 284
60 291
60 298
60 319
60 322
60 350
60 394
60 403
60 412
60 438
60 460
60 519
60 548
60 549
60 588
60 601
60 615
60 618
60 699
60 702
60 721
60 762
60 779
60 818
60 943
60 947
61 95
61 98
61 99
61 127
61 256
61 261
61 317
61 373
61 442
61 569
61 599
61 756
61 762
61 937
61 948
61 976
62 139
62 194
62 282
62 314
62 367
62 376
62 386
62 557
62 573
62 596
62 628
62 702
62 707
62 859
62 893
62 923
62 962
62 981
62 994
63 203
63 354
63 385
63 443
63 513
63 557
63 569
63 577
63 613
63 640
63 672
63 721
63 746
63 782
63 843
63 851
63 888
63 906
63 918
63 920
63 979
64 119
64 187
64 195
64 208
64 224
64 292
64 319
64 338
64 354
64 379
64 390
64 391
64 399
64 408
64 433
64 437
64 483
64 584
64 613
64 646
64 812
64 844
64 906
64 916
64 938
64 963
64 964
65 71
65 114
65 120
65 143
65 169
65 215
65 267
65 421
65 431
65 459
65 487
65 525
65 538
65 564
65 624
65 666
65 706
65 717
65 729
65 796
65 824
65 848
65 861
65 878
66 313
66 369
66 438
66 557
66 653
66 798
66 820
66 833
66 906
66 994
67 158
67 161
67 214
67 281
67 343
67 463
67 485
67 520
67 561
67 599
67 639
67 648
67 681
67 865
67 927
68 76
68 220
68 383
68 444
68 464
68 485
68 677
68 678
68 681
68 911
68 977
68 980
69 154
69 211
69 299
69 310
69 323
69 450
69 525
69 554
69 630
69 672
69 732
69 741
69 769
69 850
70 238
70 254
70 255
70 567
70 664
70 683
70 783
70 816
70 849
70 861
70 898
70 902
71 89
71 109
71 120
71 146
71 148
71 157
71 185
71 215
71 220
71 306
71 316
71 324
71 356
71 358
71 359
71 362
71 410
71 432
71 473
71 478
71 494
71 501
71 540
71 579
71 662
71 755
71 781
71 812
71 853
71 861
71 952
71 973
71 994
72 96
72 152
72 166
72 173
72 191
72 193
72 240
72 266
72 299
72 343
72 388
72 410
72 419
72 441
72 444
72 448
72 480
72 541
72 576
72 581
72 599
72 652
72 663
72 680
72 682
72 701
72 740
72 825
72 870
72 911
72 989
72 991
73 98
73 300
73 352
73 406
73 411
73 446
73 466
73 512
73 572
73 614
73 696
73 724
74 211
74 220
74 286
74 528
74 596
74 626
74 641
74 652
74 685
74 726
74 731
74 765
74 769
74 779
75 110
75 215
75 329
75 827
75 901
75 948
75 998
76 120
76 122
76 129
76 133
76 135
76 143
76 146
76 147
76 190
76 193
76 247
76 280
76 311
76 317
76 387
76 397
76 398
76 403
76 434
76 439
76 491
76 505
76 530
76 557
76 595
76 617
76 640
76 657
76 667
76 707
76 711
76 719
76 773
76 803
76 823
76 951
77 86
77 121
77 171
77 258
77 475
77 506
77 593
77 840
77 919
77 952
77 970
78 114
78 172
78 193
78 198
78 325
78 455
78 479
78 546
78 650
78 831
78 871
78 911
78 914
78 926
79 132
79 368
79 414
79 540
79 655
79 704
79 746
79 793
79 797
79 844
79 896
79 923
79 946
79 973
80 300
80 317
80 396
80 405
80 536
80 550
80 580
80 603
80 671
80 773
80 842
80 843
80 929
80 940
80 941
80 973
80 996
81 187
81 267
81 308
81 321
81 354
81 424
81 458
81 483
81 646
81 652
81 709
81 854
81 916
81 938
81 952
82 86
82 110
82 174
82 284
82 329
82 365
82 585
82 622
82 693
82 729
82 746
82 946
82 998
83 106
83 159
83 226
83 251
83 256
83 278
83 308
83 329
83 434
83 440
83 453
83 457
83 466
83 565
83 632
83 676
83 677
83 690
83 745
83 753
83 763
83 779
83 784
83 788
83 852
83 859
83 905
83 937
84 101
84 118
84 214
84 384
84 403
84 419
84 434
84 565
84 672
84 700
84 721
84 726
84 821
84 845
84 891
84 905
84 973
85 121
85 218
85 227
85 348
85 642
85 776
85 790
85 839
85 896
85 972
85 994
86 136
86 146
86 150
86 255
86 257
86 277
86 331
86 349
86 378
86 388
86 406
86 428
86 466
86 505
86 548
86 581
86 596
86 647
86 652
86 653
86 694
86 697
86 723
86 733
86 784
86 786
86 810
86 814
86 820
86 844
86 855
86 870
86 876
86 894
86 928
86 953
87 95
87 98
87 236
87 382
87 485
87 523
87 526
87 569
87 591
87 650
87 718
87 756
87 762
87 816
87 820
87 907
87 948
87 968
88 103
88 138
88 260
88 339
88 369
88 475
88 501
88 567
88 569
88 602
88 669
88 783
88 929
89 173
89 245
89 327
89 334
89 346
89 475
89 713
89 733
89 756
89 760
89 952
90 110
90 175
90 350
90 551
90 749
90 820
90 917
90 977
91 96
91 198
91 272
91 276
91 284
91 331
91 333
91 335
91 513
91 541
91 829
91 856
91 962
92 103
92 129
92 254
92 393
92 444
92 460
92 465
92 473
92 475
92 533
92 585
92 588
92 594
92 608
92 648
92 651
92 712
92 811
92 865
92 960
92 963
92 999
93 117
93 192
93 217
93 227
93 281
93 403
93 427
93 471
93 741
93 843
93 971
94 128
94 163
94 198
94 307
94 322
94 327
94 350
94 379
94 541
94 593
94 615
94 699
94 705
94 725
94 857
94 952
95 98
95 166
95 242
95 257
95 327
95 354
95 442
95 569
95 577
95 700
95 756
95 799
95 904
95 948
95 969
96 105
96 106
96 124
96 136
96 141
96 193
96 235
96 285
96 289
96 308
96 322
96 332
96 342
96 346
96 351
96 380
96 395
96 396
96 397
96 418
96 438
96 495
96 546
96 716
96 745
96 746
96 755
96 777
96 778
96 799
96 822
96 829
96 834
96 841
96 845
96 884
96 890
96 905
96 912
96 988
96 998
97 233
97 267
97 320
97 425
97 528
97 583
97 631
97 672
97 747
98 119
98 196
98 197
98 214
98 249
98 250
98 264
98 306
98 381
98 400
98 406
98 407
98 442
98 512
98 517
98 527
98 536
98 546
98 569
98 615
98 628
98 660
98 668
98 756
98 762
98 774
98 811
98 821
98 919
98 928
98 948
98 951
98 987
99 114
99 138
99 170
99 188
99 222
99 236
99 271
99 297
99 411
99 484
99 518
99 523
99 558
99 601
99 650
99 680
99 714
99 724
99 736
99 738
99 767
99 794
99 803
99 817
99 824
99 893
99 942
99 954
99 981
100 215
100 220
100 299
100 300
100 313
100 412
100 417
100 450
100 624
100 701
100 708
100 725
100 802
100 946
100 949
101 157
101 199
101 376
101 550
101 551
101 631
101 652
101 656
101 837
101 863
102 141
102 150
102 160
102 195
102 214
102 220
102 270
102 309
102 340
102 398
102 407
102 556
102 593
102 608
102 672
102 780
102 835
102 888
102 900
102 994
103 137
103 150
103 251
103 261
103 299
103 302
103 344
103 478
103 608
103 711
103 717
103 829
103 841
103 865
103 933
103 939
103 956
104 127
104 133
104 248
104 260
104 300
104 467
104 526
104 532
104 633
104 688
104 712
104 841
104 866
105 141
105 149
105 177
105 202
105 229
105 267
105 280
105 475
105 616
105 726
105 732
105 785
105 845
105 981
106 132
106 198
106 294
106 319
106 346
106 352
106 513
106 591
106 614
106 630
106 787
106 797
106 839
106 859
106 981
106 985
107 533
107 575
107 625
107 652
107 743
107 807
107 826
107 829
107 850
107 878
107 920
107 928
107 948
107 950
107 981
108 131
108 150
108 186
108 317
108 383
108 405
108 410
108 475
108 536
108 773
108 814
108 899
108 951
108 973
109 156
109 165
109 187
109 233
109 254
109 321
109 333
109 376
109 396
109 398
109 428
109 434
109 488
109 496
109 514
109 573
109 588
109 663
109 671
109 680
109 717
109 740
109 767
109 798
109 831
109 860
109 887
109 888
109 892
109 900
109 943
109 945
109 952
109 963
109 973
109 993
110 208
110 215
110 292
110 301
110 314
110 321
110 329
110 339
110 352
110 381
110 436
110 454
110 473
110 502
110 546
110 573
110 584
110 622
110 677
110 729
110 801
110 812
110 874
110 895
110 998
111 239
111 243
111 299
111 334
111 350
111 380
111 435
111 462
111 515
111 611
111 797
111 816
111 847
111 864
111 935
111 943
112 134
112 158
112 178
112 425
112 514
112 676
112 754
112 817
112 877
112 940
112 964
113 323
113 358
113 539
113 560
113 694
113 702
113 722
113 765
113 862
113 915
114 136
114 139
114 163
114 171
114 224
114 247
114 272
114 303
114 327
114 345
114 365
114 408
114 409
114 432
114 451
114 472
114 478
114 524
114 573
114 588
114 601
114 613
114 659
114 671
114 686
114 741
114 767
114 829
114 830
114 839
114 849
114 881
114 958
114 997
115 123
115 124
115 150
115 191
115 214
115 273
115 317
115 323
115 368
115 392
115 419
115 457
115 466
115 478
115 529
115 541
115 554
115 560
115 741
115 751
115 794
115 797
115 875
115 882
115 997
116 186
116 337
116 369
116 370
116 471
116 487
116 538
116 710
116 763
116 796
116 836
116 862
116 916
117 152
117 193
117 256
117 398
117 512
117 564
117 666
117 734
117 738
117 787
117 828
117 913
117 961
117 986
118 199
118 268
118 308
118 327
118 384
118 409
118 485
118 565
118 593
118 617
118 640
118 700
118 701
118 721
118 776
118 848
118 905
119 141
119 184
119 350
119 371
119 394
119 429
119 455
119 555
119 618
119 705
119 726
119 996
120 127
120 136
120 186
120 191
120 207
120 232
120 255
120 335
120 492
120 551
120 557
120 637
120 806
120 857
120 869
120 930
120 938
120 946
120 952
121 280
121 311
121 335
121 397
121 491
121 700
121 707
121 711
121 725
121 751
121 762
121 769
121 786
121 792
121 823
121 842
121 949
121 951
122 132
122 174
122 179
122 198
122 243
122 286
122 335
122 389
122 392
122 449
122 478
122 509
122 545
122 595
122 725
122 726
122 851
122 956
122 974
123 178
123 215
123 255
123 263
123 274
123 305
123 368
123 401
123 442
123 448
123 462
123 475
123 595
123 624
123 652
123 689
123 707
123 838
123 900
124 265
124 285
124 290
124 625
124 652
124 726
124 835
124 855
124 878
124 893
124 950
125 217
125 433
125 590
125 632
125 654
125 677
125 868
125 877
126 208
126 260
126 350
126 512
126 549
126 600
126 680
126 743
126 843
126 924
126 967
126 973
127 143
127 167
127 188
127 200
127 228
127 242
127 250
127 257
127 276
127 280
127 291
127 330
127 370
127 487
127 503
127 531
127 548
127 554
127 573
127 598
127 606
127 619
127 643
127 671
127 672
127 681
127 686
127 794
127 806
127 837
127 839
127 855
127 927
128 182
128 185
128 210
128 228
128 242
128 249
128 267
128 321
128 327
128 345
128 495
128 508
128 539
128 545
128 573
128 578
128 611
128 624
128 636
128 805
128 948
128 975
129 243
129 271
129 331
129 356
129 379
129 388
129 544
129 685
129 728
129 759
129 874
129 889
129 922
129 944
129 955
129 974
129 993
130 280
130 310
130 345
130 520
130 534
130 546
130 556
130 595
130 630
130 697
130 741
130 757
130 815
130 844
130 865
130 923
131 163
131 170
131 352
131 388
131 582
131 721
131 737
131 756
131 769
131 800
131 801
131 952
131 981
132 146
132 179
132 189
132 220
132 229
132 259
132 296
132 329
132 335
132 344
132 389
132 509
132 515
132 545
132 587
132 624
132 634
132 662
132 721
132 725
132 770
132 772
132 795
132 838
132 855
132 953
132 963
132 969
132 973
133 148
133 170
133 174
133 234
133 242
133 256
133 283
133 336
133 366
133 391
133 394
133 430
133 436
133 455
133 469
133 497
133 511
133 553
133 567
133 599
133 610
133 613
133 664
133 675
133 712
133 759
133 785
133 792
133 807
133 818
133 859
133 879
133 896
133 914
133 917
133 922
133 948
134 299
134 321
134 331
134 458
134 562
134 724
134 808
134 860
134 887
134 967
135 164
135 201
135 209
135 239
135 276
135 310
135 320
135 354
135 523
136 164
136 166
136 182
136 194
136 265
136 343
136 456
136 755
136 756
136 776
136 877
136 987
137 161
137 211
137 303
137 307
137 321
137 342
137 416
137 426
137 448
137 479
137 526
137 584
137 626
137 726
137 737
137 740
137 816
137 920
137 921
138 159
138 200
138 227
138 260
138 277
138 292
138 356
138 406
138 501
138 507
138 508
138 531
138 563
138 569
138 592
138 603
138 869
138 929
139 264
139 435
139 441
139 489
139 546
139 884
139 948
139 949
139 977
140 209
140 216
140 225
140 310
140 478
140 520
140 613
140 685
140 780
140 842
140 852
141 180
141 208
141 218
141 278
141 295
141 350
141 409
141 615
141 630
141 688
141 705
141 779
141 790
141 953
142 307
142 320
142 359
142 487
142 668
142 728
142 844
142 872
142 911
142 952
143 158
143 232
143 235
143 273
143 279
143 356
143 390
143 454
143 460
143 480
143 503
143 531
143 554
143 575
143 584
143 598
143 659
143 672
143 722
143 779
143 792
143 855
143 867
143 883
143 884
144 355
144 428
144 653
144 690
144 754
144 793
144 874
144 951
144 972
145 354
145 429
145 606
145 732
145 758
145 778
145 785
145 809
145 855
145 880
145 900
146 316
146 359
146 410
146 435
146 457
146 542
146 579
146 595
146 640
146 840
146 847
146 984
146 998
147 174
147 280
147 311
147 397
147 410
147 475
147 491
147 521
147 582
147 707
147 740
147 745
147 820
147 823
147 884
147 934
148 151
148 328
148 582
148 593
148 712
148 792
148 807
148 830
148 839
149 177
149 202
149 330
149 415
149 441
149 594
149 784
149 792
149 819
149 885
149 982
150 152
150 154
150 202
150 261
150 293
150 314
150 345
150 394
150 426
150 431
150 449
150 510
150 514
150 515
150 526
150 530
150 539
150 580
150 584
150 592
150 601
150 606
150 607
150 643
150 647
150 692
150 724
150 743
150 784
150 803
150 807
150 809
150 813
150 814
150 956
150 971
150 991
150 997
151 283
151 399
151 465
151 504
151 553
151 593
151 633
151 679
151 722
151 879
151 922
152 179
152 250
152 266
152 286
152 299
152 444
152 466
152 500
152 554
152 644
152 680
152 722
152 777
152 900
152 989
152 994
153 258
153 342
153 343
153 348
153 354
153 401
153 410
153 443
153 576
153 786
153 799
153 874
153 910
153 920
153 938
154 233
154 261
154 309
154 310
154 436
154 480
154 493
154 654
154 725
154 732
154 772
154 786
154 793
154 977
155 288
155 300
155 326
155 350
155 354
155 535
155 855
155 870
155 947
156 261
156 290
156 369
156 383
156 437
156 485
156 565
156 567
156 699
156 703
156 872
156 943
157 309
157 310
157 320
157 373
157 388
157 457
157 766
157 770
157 798
157 803
157 819
157 879
157 909
157 934
158 229
158 356
158 358
158 429
158 452
158 493
158 672
158 751
158 780
158 864
158 893
158 898
158 981
159 219
159 278
159 453
159 458
159 677
159 814
160 209
160 307
160 324
160 441
160 446
160 533
160 562
160 584
160 760
160 785
160 811
160 914
161 209
161 243
161 320
161 349
161 418
161 484
161 522
161 581
161 731
161 810
161 814
161 928
161 953
162 233
162 285
162 319
162 348
162 353
162 448
162 581
162 659
162 665
162 809
162 881
162 952
163 171
163 172
163 186
163 211
163 269
163 288
163 296
163 357
163 363
163 365
163 387
163 462
163 478
163 492
163 507
163 564
163 571
163 607
163 615
163 671
163 713
163 741
163 775
163 830
163 860
163 867
163 901
163 925
163 993
164 179
164 231
164 260
164 265
164 295
164 315
164 456
164 468
164 507
164 621
164 628
164 661
164 669
164 736
164 827
164 831
164 843
164 877
164 932
164 942
164 974
164 987
165 188
165 389
165 428
165 514
165 663
165 925
166 169
166 202
166 226
166 261
166 373
166 580
166 599
166 672
166 754
166 770
166 778
166 795
166 798
166 819
166 960
167 209
167 227
167 228
167 348
167 384
167 389
167 466
167 529
167 541
167 630
167 642
167 687
167 698
167 823
167 869
167 873
167 936
167 973
167 999
168 308
168 352
168 481
168 503
168 706
168 708
168 797
168 839
168 863
168 924
168 984
169 327
169 347
169 435
169 537
169 693
169 845
169 934
169 951
169 977
170 175
170 186
170 265
170 267
170 297
170 302
170 309
170 321
170 370
170 379
170 486
170 491
170 523
170 535
170 544
170 550
170 577
170 578
170 583
170 660
170 680
170 694
170 746
170 749
170 765
170 798
170 811
170 824
170 835
170 854
170 870
170 875
170 907
170 938
170 973
171 233
171 267
171 286
171 365
171 369
171 671
171 741
171 771
171 773
171 830
171 902
172 198
172 214
172 222
172 238
172 371
172 569
172 693
172 813
172 831
172 870
172 911
172 916
173 237
173 245
173 322
173 489
173 600
173 603
173 641
173 655
173 714
173 730
173 733
173 760
173 848
173 861
173 897
173 951
173 972
173 976
174 207
174 314
174 325
174 352
174 392
174 422
174 457
174 472
174 525
174 529
174 541
174 560
174 590
174 701
174 751
174 872
174 893
174 924
174 938
174 948
174 983
175 182
175 270
175 342
175 439
175 447
175 485
175 503
175 672
175 742
175 806
175 871
175 917
175 918
175 977
175 982
176 372
176 418
176 448
176 535
176 567
176 658
177 202
177 218
177 241
177 286
177 357
177 616
177 772
177 885
177 994
177 995
178 356
178 456
178 507
178 676
178 725
178 732
178 812
178 855
178 884
178 907
179 229
179 335
179 389
179 440
179 450
179 545
179 564
179 637
179 640
179 643
179 663
179 725
179 993
180 206
180 314
180 340
180 345
180 369
180 387
180 388
180 499
180 547
180 548
180 555
180 562
180 677
180 757
180 982
181 233
181 256
181 330
181 369
181 404
181 475
181 577
181 593
181 641
181 648
181 662
181 693
181 717
181 758
181 777
181 840
181 906
181 938
182 199
182 201
182 220
182 233
182 237
182 265
182 272
182 325
182 380
182 389
182 391
182 422
182 443
182 444
182 524
182 555
182 611
182 616
182 645
182 647
182 664
182 672
182 675
182 682
182 737
182 753
182 760
182 786
182 798
182 820
182 828
182 863
182 871
182 883
182 907
183 201
183 262
183 328
183 334
183 509
183 514
183 673
183 674
183 790
183 864
183 950
183 959
183 969
183 986
184 241
184 273
184 279
184 387
184 483
184 541
184 570
184 670
184 673
184 714
184 719
184 981
184 986
184 998
185 245
185 299
185 359
185 395
185 403
185 410
185 447
185 526
185 540
185 777
185 786
185 816
185 849
185 853
185 902
185 923
185 937
185 977
186 204
186 205
186 207
186 272
186 286
186 293
186 399
186 434
186 440
186 514
186 527
186 528
186 530
186 534
186 590
186 631
186 632
186 641
186 745
186 777
186 778
186 806
186 813
187 354
187 369
187 372
187 404
187 483
187 728
187 754
187 765
187 793
187 938
188 193
188 236
188 259
188 267
188 292
188 484
188 496
188 548
188 601
188 736
188 745
188 808
189 213
189 350
189 464
189 477
189 520
189 626
189 845
189 907
189 931
189 942
189 949
190 241
190 321
190 328
190 550
190 662
190 777
190 813
190 885
190 951
190 966
190 972
191 197
191 497
191 702
191 849
191 930
191 937
191 964
192 233
192 351
192 381
192 513
192 630
192 640
192 662
192 729
192 746
192 824
192 920
192 982
193 200
193 232
193 260
193 278
193 280
193 282
193 321
193 354
193 356
193 385
193 398
193 413
193 414
193 415
193 428
193 436
193 441
193 454
193 458
193 474
193 482
193 497
193 633
193 635
193 638
193 644
193 646
193 716
193 760
193 829
193 844
193 865
193 869
193 881
193 909
193 925
193 988
193 995
194 277
194 279
194 282
194 367
194 390
194 407
194 557
194 657
194 660
194 721
194 777
194 923
194 977
195 214
195 257
195 270
195 272
195 273
195 309
195 327
195 428
195 437
195 453
195 458
195 536
195 544
195 678
195 702
195 729
195 793
195 824
195 863
195 888
195 898
195 917
195 994
195 998
196 219
196 300
196 637
196 667
196 709
196 721
196 722
196 734
196 754
196 774
196 777
196 957
196 986
197 325
197 359
197 390
197 499
197 608
197 637
197 769
197 869
197 877
198 326
198 379
198 416
198 425
198 457
198 460
198 461
198 467
198 512
198 513
198 522
198 566
198 574
198 590
198 612
198 622
198 650
198 674
198 727
198 769
198 816
198 826
198 831
198 852
198 884
198 911
198 926
198 974
199 214
199 299
199 325
199 338
199 377
199 391
199 417
199 422
199 443
199 471
199 492
199 554
199 607
199 621
199 622
199 642
199 645
199 681
199 724
199 742
199 786
199 794
199 797
199 883
199 994
200 232
200 415
200 429
200 441
200 458
200 468
200 475
200 482
200 518
200 524
200 551
200 574
200 610
200 611
200 630
200 633
200 635
200 658
200 684
200 698
200 763
200 785
200 800
200 863
200 867
200 923
200 958
200 989
200 996
201 207
201 211
201 217
201 225
201 300
201 333
201 334
201 335
201 357
201 519
201 559
201 570
201 640
201 641
201 643
201 651
201 656
201 669
201 675
201 693
201 708
201 709
201 712
201 716
201 733
201 734
201 737
201 752
201 761
201 801
201 921
201 951
201 959
201 966
201 969
201 991
202 208
202 241
202 261
202 279
202 299
202 357
202 397
202 616
202 694
202 707
202 772
202 777
202 813
202 885
203 220
203 310
203 322
203 355
203 368
203 430
203 460
203 693
203 696
203 868
203 895
203 909
204 209
204 225
204 254
204 374
204 409
204 445
204 464
204 495
204 521
204 610
204 640
204 652
204 662
204 778
204 786
204 797
204 935
205 310
205 372
205 520
205 523
205 562
205 584
205 640
205 682
205 754
205 842
205 844
205 884
205 914
205 994
206 254
206 403
206 476
206 488
206 500
206 635
206 748
206 897
206 910
206 937
207 222
207 286
207 317
207 345
207 507
207 534
207 671
207 693
207 702
207 769
207 778
207 917
207 998
208 250
208 251
208 295
208 298
208 322
208 350
208 538
208 595
208 618
208 652
208 699
208 705
208 783
208 860
209 216
209 225
209 267
209 276
209 291
209 299
209 336
209 344
209 350
209 392
209 404
209 445
209 484
209 576
209 605
209 613
209 619
209 734
209 740
209 791
209 800
209 842
209 875
209 903
209 960
209 964
209 969
210 249
210 315
210 341
210 593
210 817
210 929
210 975
211 334
211 355
211 417
211 429
211 521
211 553
211 560
211 662
211 664
211 675
211 709
211 790
211 813
211 845
211 867
211 894
211 899
211 959
211 969
212 229
212 320
212 567
212 590
212 783
212 832
212 849
212 890
212 914
212 951
213 243
213 285
213 314
213 344
213 374
213 387
213 548
213 572
213 774
213 841
213 881
213 972
214 218
214 221
214 257
214 270
214 308
214 309
214 334
214 398
214 408
214 505
214 533
214 553
214 557
214 571
214 649
214 652
214 675
214 694
214 799
214 800
214 803
214 824
214 888
214 894
214 928
214 979
214 988
214 994
215 267
215 299
215 313
215 327
215 335
215 346
215 363
215 371
215 382
215 404
215 493
215 520
215 541
215 553
215 566
215 606
215 640
215 663
215 677
215 696
215 709
215 724
215 744
215 770
215 776
215 781
215 784
215 813
215 876
215 911
215 946
215 949
215 960
215 963
215 999
216 225
216 315
216 396
216 404
216 411
216 613
216 684
216 701
216 842
216 850
216 903
216 983
217 260
217 334
217 356
217 403
217 562
217 642
217 654
217 657
217 678
217 771
217 822
217 823
217 843
217 868
217 878
217 971
217 977
218 227
218 310
218 315
218 392
218 599
218 610
218 630
218 634
218 703
218 708
218 716
218 765
219 371
219 570
219 581
219 702
219 734
219 754
219 774
219 777
219 850
219 859
219 904
219 957
219 986
220 242
220 258
220 293
220 299
220 303
220 340
220 367
220 474
220 500
220 564
220 565
220 597
220 637
220 663
220 666
220 670
220 676
220 677
220 692
220 718
220 738
220 750
220 751
220 787
220 818
220 822
220 842
220 913
220 930
220 983
220 986
221 238
221 264
221 317
221 340
221 567
221 600
221 637
221 677
221 681
221 819
221 824
221 849
221 890
221 945
221 962
222 255
222 286
222 324
222 345
222 527
222 534
222 674
222 735
222 955
223 236
223 300
223 307
223 369
223 452
223 458
223 463
223 476
223 495
223 514
223 578
223 612
223 638
223 715
223 724
223 736
223 755
223 802
223 824
223 907
223 967
223 981
224 354
224 415
224 467
224 571
224 646
224 751
224 850
224 916
224 938
225 275
225 329
225 379
225 404
225 413
225 426
225 558
225 860
225 922
226 237
226 418
226 515
226 558
226 600
226 607
226 640
226 653
226 802
226 841
226 844
226 937
226 941
227 228
227 255
227 302
227 348
227 354
227 412
227 481
227 514
227 519
227 528
227 609
227 630
227 634
227 642
227 698
227 760
227 800
227 887
227 922
228 259
228 275
228 630
228 634
228 642
228 677
228 687
229 271
229 282
229 309
229 333
229 358
229 377
229 388
229 390
229 493
229 537
229 561
229 587
229 596
229 605
229 607
229 652
229 668
229 672
229 674
229 725
229 764
229 780
229 827
229 856
229 861
229 864
229 893
229 896
229 911
229 928
229 952
229 997
230 259
230 387
230 463
230 488
230 612
230 724
230 951
230 967
230 969
231 285
231 363
231 417
231 636
231 901
231 913
231 970
232 415
232 441
232 456
232 458
232 521
232 633
232 865
232 913
233 320
233 374
233 408
233 412
233 423
233 425
233 439
233 623
233 741
233 747
233 792
234 327
234 429
234 622
234 836
234 850
234 998
235 446
235 471
235 499
235 572
235 654
235 700
235 818
236 292
236 294
236 419
236 463
236 484
236 487
236 534
236 558
236 583
236 620
236 628
236 652
236 654
236 659
236 684
236 714
236 736
236 745
236 754
236 850
236 908
236 942
236 979
236 991
237 245
237 255
237 321
237 419
237 467
237 730
237 837
237 859
237 938
237 967
238 273
238 274
238 300
238 321
238 322
238 567
238 708
238 747
238 783
238 790
238 849
238 951
239 240
239 244
239 281
239 291
239 307
239 391
239 398
239 437
239 627
239 662
239 767
239 904
239 946
240 267
240 291
240 393
240 494
240 540
240 555
240 609
240 627
240 655
240 677
240 767
240 777
240 889
240 904
240 971
241 357
241 411
241 478
241 494
241 609
241 637
241 647
241 706
241 850
241 885
241 930
241 931
241 933
242 355
242 402
242 412
242 499
242 526
242 644
242 682
242 696
242 852
242 940
243 261
243 263
243 271
243 272
243 319
243 328
243 331
243 369
243 376
243 390
243 424
243 442
243 538
243 541
243 597
243 602
243 606
243 674
243 677
243 711
243 733
243 759
243 769
243 816
243 831
243 938
243 944
243 955
244 260
244 291
244 378
244 390
244 494
244 519
244 584
244 636
244 767
245 370
245 380
245 384
245 500
245 501
245 574
245 578
245 689
245 734
245 760
245 803
245 861
245 865
245 941
246 328
246 329
246 352
246 355
246 594
246 595
246 662
246 665
246 760
246 951
246 968
246 972
247 276
247 352
247 511
247 541
247 625
247 746
247 839
247 863
247 884
247 893
248 348
248 400
248 413
248 425
248 504
248 524
248 526
248 569
248 573
248 606
248 679
248 688
248 813
248 829
248 834
248 841
249 341
249 404
249 697
249 725
249 805
249 946
249 975
249 997
250 421
250 642
250 672
250 687
250 852
250 862
251 286
251 295
251 322
251 350
251 407
251 425
251 554
251 615
251 618
251 641
251 646
251 693
251 705
251 716
251 761
251 779
251 832
251 862
251 974
252 295
252 298
252 304
252 322
252 350
252 409
252 748
252 890
253 372
253 448
253 505
253 513
253 535
253 540
253 575
253 630
253 665
253 697
253 725
253 765
253 953
253 969
254 285
254 293
254 304
254 358
254 359
254 364
254 374
254 408
254 419
254 445
254 521
254 536
254 568
254 578
254 602
254 606
254 666
254 691
254 726
254 749
254 760
254 775
254 776
254 786
254 790
254 797
254 839
254 844
254 858
254 873
254 892
254 896
254 935
254 948
254 953
254 984
254 999
255 263
255 268
255 274
255 305
255 310
255 324
255 329
255 367
255 397
255 428
255 475
255 477
255 499
255 515
255 546
255 567
255 606
255 624
255 644
255 655
255 689
255 692
255 693
255 701
255 705
255 726
255 802
255 815
255 827
255 849
255 866
255 891
255 927
255 967
255 987
255 993
255 994
256 307
256 336
256 526
256 610
256 726
256 745
256 792
256 807
256 922
256 960
257 267
257 270
257 299
257 309
257 398
257 495
257 571
257 599
257 623
257 670
257 732
257 751
257 762
257 884
257 888
257 923
257 925
257 972
257 994
258 379
258 395
258 401
258 572
258 653
258 739
259 269
259 285
259 290
259 292
259 326
259 327
259 384
259 386
259 412
259 476
259 499
259 508
259 510
259 529
259 540
259 568
259 596
259 598
259 643
259 652
259 687
259 750
259 769
259 778
259 792
259 878
259 899
259 912
259 913
259 928
259 929
259 947
259 988
259 990
260 268
260 272
260 277
260 279
260 337
260 374
260 392
260 501
260 508
260 563
260 568
260 601
260 634
260 669
260 680
260 698
260 820
260 825
260 891
260 929
261 264
261 279
261 383
261 394
261 410
261 437
261 447
261 485
261 574
261 681
261 703
261 746
261 764
261 827
261 831
261 841
261 846
261 883
261 885
261 909
261 992
262 438
262 616
262 697
262 772
262 874
263 305
263 307
263 376
263 541
263 547
263 624
263 689
263 738
263 843
263 878
263 923
264 268
264 344
264 364
264 372
264 435
264 464
264 489
264 492
264 546
264 651
264 764
264 770
264 841
264 867
264 875
264 945
265 319
265 363
265 384
265 425
265 456
265 468
265 573
265 593
265 595
265 702
265 877
265 896
265 996
266 299
266 315
266 337
266 368
266 444
266 529
266 550
266 573
266 576
266 695
266 698
266 822
266 874
267 375
267 408
267 412
267 413
267 427
267 439
267 465
267 495
267 508
267 630
267 664
267 683
267 724
267 752
267 768
267 774
267 881
267 886
267 907
267 910
267 936
267 951
267 968
267 972
267 996
267 998
268 386
268 411
268 476
268 543
268 568
268 687
268 703
268 793
268 799
268 962
268 998
269 272
269 369
269 386
269 476
269 537
269 540
269 640
269 839
269 917
270 309
270 339
270 371
270 481
270 525
270 526
270 546
270 571
270 640
270 687
270 776
270 857
270 866
270 888
270 890
270 946
270 994
271 559
271 759
271 813
271 899
271 944
271 954
271 955
271 981
272 275
272 307
272 338
272 372
272 446
272 484
272 559
272 722
272 871
272 912
272 957
272 962
272 981
273 279
273 303
273 310
273 386
273 408
273 425
273 444
273 451
273 489
273 492
273 507
273 565
273 570
273 579
273 616
273 623
273 673
273 710
273 712
273 719
273 751
273 762
273 782
273 793
273 824
273 826
273 912
273 940
273 954
273 979
273 998
274 300
274 305
274 321
274 388
274 579
274 689
274 740
274 745
274 762
274 855
274 866
275 311
275 362
275 565
275 625
275 652
275 707
275 826
275 835
275 844
275 999
276 312
276 426
276 485
276 557
276 567
276 586
276 596
276 647
276 765
276 771
276 789
277 279
277 426
277 429
277 545
277 563
277 669
277 837
277 929
278 280
278 300
278 453
278 677
278 754
278 797
278 820
278 875
278 994
279 507
279 598
279 623
279 643
279 646
279 673
279 693
279 710
279 726
279 920
279 940
280 292
280 397
280 450
280 477
280 491
280 599
280 707
280 741
280 855
280 967
281 332
281 561
281 599
281 639
281 774
281 844
281 891
281 991
281 996
282 322
282 353
282 367
282 376
282 407
282 436
282 557
282 813
282 854
282 863
282 900
282 923
282 951
282 998
283 294
283 433
283 444
283 481
283 553
283 610
283 722
283 723
283 770
283 792
283 865
283 922
284 319
284 348
284 590
284 619
284 620
284 706
284 839
284 871
284 952
284 962
285 286
285 321
285 322
285 332
285 347
285 348
285 400
285 439
285 487
285 514
285 536
285 565
285 587
285 628
285 636
285 651
285 688
285 691
285 705
285 753
285 760
285 770
285 785
285 798
285 853
285 863
285 877
285 901
285 933
285 968
285 969
285 994
286 383
286 410
286 527
286 528
286 534
286 603
286 606
286 631
286 778
286 818
286 823
286 902
286 937
287 369
287 384
287 438
287 515
287 652
287 672
287 788
287 796
287 820
287 850
287 951
287 952
287 994
288 517
288 765
288 828
288 861
288 870
288 934
288 969
288 981
288 998
289 346
289 418
289 611
289 745
289 784
289 822
289 829
289 856
289 884
289 963
290 315
290 368
290 421
290 498
290 599
290 666
290 683
290 694
290 722
291 359
291 379
291 453
291 523
291 534
291 555
291 627
291 668
291 719
291 724
291 758
291 761
291 767
291 783
291 816
291 833
291 840
291 900
291 904
291 923
292 317
292 352
292 440
292 467
292 484
292 558
292 601
292 640
292 662
292 714
292 736
292 750
292 807
292 923
292 929
292 942
293 377
293 403
293 452
293 693
293 722
293 729
293 765
293 806
293 831
293 850
293 951
294 306
294 319
294 335
294 360
294 361
294 484
294 562
294 591
294 594
294 757
294 859
294 883
294 969
294 981
295 313
295 322
295 347
295 350
295 443
295 475
295 559
295 618
295 699
295 745
295 779
296 335
296 356
296 380
296 389
296 470
296 509
296 545
296 725
296 795
296 935
296 951
297 321
297 392
297 439
297 503
297 544
297 550
297 567
297 701
297 758
297 798
297 837
297 854
297 900
297 951
298 322
298 350
298 394
298 445
298 618
298 652
298 803
298 877
298 881
298 898
298 913
298 914
299 433
299 444
299 466
299 504
299 526
299 542
299 576
299 640
299 680
299 683
299 690
299 751
299 761
299 814
299 864
299 893
299 903
299 949
299 965
299 969
299 989
300 315
300 326
300 399
300 432
300 441
300 537
300 547
300 550
300 637
300 662
300 748
300 757
300 828
300 850
300 861
300 870
300 908
300 947
300 977
300 993
301 390
301 427
301 437
301 440
301 577
301 619
301 774
301 776
301 999
302 324
302 334
302 344
302 363
302 383
302 425
302 456
302 549
302 559
302 567
302 608
302 619
302 706
302 712
302 717
302 751
302 804
302 873
302 932
302 939
302 965
303 307
303 354
303 387
303 416
303 479
303 480
303 568
303 582
303 634
303 644
303 672
303 726
303 732
303 737
303 740
303 792
303 816
303 921
304 371
304 374
304 418
304 429
304 445
304 521
304 546
304 651
304 786
304 797
304 863
304 984
304 997
305 412
305 652
305 689
305 785
305 806
305 991
305 993
305 998
306 441
306 489
306 543
306 617
306 620
306 912
307 310
307 367
307 378
307 412
307 416
307 479
307 587
307 589
307 601
307 726
307 737
307 740
307 759
307 793
307 816
307 839
307 854
307 919
307 921
307 949
308 392
308 411
308 490
308 533
308 596
308 658
308 674
308 751
308 756
308 806
308 835
308 867
308 952
309 340
309 398
309 409
309 463
309 521
309 546
309 586
309 599
309 617
309 697
309 713
309 722
309 753
309 754
309 757
309 778
309 888
309 985
309 994
310 323
310 345
310 409
310 449
310 450
310 463
310 480
310 499
310 506
310 543
310 579
310 581
310 592
310 605
310 638
310 675
310 679
310 694
310 722
310 732
310 762
310 789
310 801
310 854
310 882
311 446
311 629
311 693
311 711
311 732
311 786
311 804
311 823
311 884
311 902
312 319
312 352
312 450
312 523
312 573
312 582
312 586
312 708
312 765
312 897
312 901
312 956
313 429
313 652
313 694
313 724
313 725
313 784
313 825
313 946
313 949
314 340
314 363
314 387
314 389
314 456
314 458
314 499
314 547
314 582
314 640
314 647
314 751
314 831
314 850
315 319
315 343
315 464
315 485
315 486
315 498
315 499
315 539
315 541
315 556
315 565
315 567
315 643
315 683
315 722
315 766
315 767
315 777
315 915
316 390
316 391
316 579
316 604
316 686
316 695
316 781
317 328
317 405
317 642
317 701
317 766
317 773
317 816
317 821
317 930
318 327
318 328
318 481
318 590
318 676
318 850
318 898
318 899
319 345
319 359
319 360
319 365
319 368
319 397
319 401
319 407
319 443
319 505
319 506
319 518
319 519
319 548
319 591
319 614
319 648
319 708
319 770
319 839
319 859
319 877
319 908
319 920
319 953
319 981
320 322
320 340
320 347
320 408
320 423
320 425
320 443
320 466
320 562
320 593
320 601
320 626
320 675
320 721
320 747
320 845
320 847
320 871
320 884
320 941
321 346
321 370
321 379
321 492
321 544
321 550
321 583
321 587
321 617
321 627
321 633
321 634
321 638
321 710
321 711
321 778
321 787
321 798
321 805
321 806
321 837
321 854
321 977
322 409
322 433
322 549
322 618
322 721
322 779
322 803
322 897
322 968
322 995
323 408
323 450
323 468
323 480
323 540
323 544
323 556
323 592
323 605
323 616
323 634
323 664
323 729
323 732
323 769
323 797
323 814
323 854
323 882
323 906
323 971
324 511
324 521
324 584
324 806
324 811
324 907
324 914
324 923
325 422
325 443
325 536
325 645
325 654
325 792
325 799
325 883
325 995
326 373
326 412
326 533
326 557
326 569
326 593
326 596
326 710
326 836
326 870
326 908
326 914
326 946
326 947
326 998
327 336
327 376
327 398
327 465
327 470
327 483
327 535
327 541
327 590
327 620
327 655
327 670
327 677
327 714
327 729
327 730
327 734
327 741
327 750
327 756
327 821
327 850
327 854
327 870
327 894
327 898
327 899
327 913
327 938
327 977
328 432
328 450
328 486
328 662
328 665
328 734
328 752
328 765
328 792
328 813
328 895
328 951
328 966
328 968
328 972
329 423
329 436
329 454
329 458
329 470
329 493
329 512
329 601
329 609
329 621
329 622
329 623
329 630
329 683
329 721
329 729
329 852
329 912
329 998
330 346
330 360
330 443
330 475
330 502
330 505
330 577
330 593
330 598
330 624
330 675
330 690
330 765
330 819
330 840
330 855
330 866
330 882
330 919
330 970
331 337
331 350
331 402
331 441
331 449
331 759
331 944
331 951
332 371
332 469
332 541
332 561
332 595
332 596
332 599
332 639
332 774
332 776
332 856
332 884
332 891
332 927
332 950
332 956
332 963
332 973
332 999
333 383
333 486
333 526
333 549
333 724
333 928
334 499
334 545
334 589
334 630
334 646
334 648
334 675
334 709
334 711
334 718
334 747
334 752
334 754
334 790
334 849
334 969
334 984
334 985
335 389
335 411
335 430
335 450
335 482
335 509
335 520
335 575
335 638
335 648
335 677
335 725
335 764
335 795
335 825
335 828
335 878
335 962
336 348
336 352
336 365
336 485
336 553
336 610
336 844
336 952
336 960
337 342
337 350
337 362
337 407
337 420
337 433
337 567
337 575
337 644
337 708
337 729
337 747
337 768
337 792
337 824
337 963
337 985
338 344
338 620
338 663
338 671
338 962
339 384
339 388
339 490
339 523
339 565
339 617
339 700
339 721
339 948
340 422
340 429
340 499
340 540
340 547
340 548
340 753
340 768
340 769
340 811
340 842
340 864
340 881
340 960
340 977
341 554
341 574
341 652
341 805
341 855
341 893
342 346
342 396
342 418
342 529
342 597
342 621
342 707
342 741
342 745
342 802
342 884
342 963
342 966
343 441
343 456
343 468
343 696
343 711
343 877
343 893
343 932
343 987
344 346
344 350
344 386
344 387
344 551
344 706
344 717
344 786
344 804
344 863
345 385
345 464
345 510
345 530
345 541
345 592
345 625
345 647
345 652
345 692
345 743
345 786
345 803
345 805
345 812
345 858
345 952
345 982
345 991
346 389
346 396
346 418
346 484
346 487
346 539
346 597
346 614
346 660
346 680
346 709
346 741
346 745
346 767
346 770
346 783
346 791
346 822
346 829
346 877
346 884
346 902
346 920
346 923
346 964
347 378
347 400
347 410
347 425
347 564
347 683
347 871
347 942
348 485
348 630
348 634
348 710
348 751
348 917
349 451
349 491
349 532
349 574
349 581
349 587
349 642
349 803
349 814
349 928
349 953
349 991
350 353
350 377
350 391
350 394
350 406
350 409
350 416
350 451
350 471
350 476
350 549
350 569
350 615
350 618
350 624
350 628
350 649
350 662
350 699
350 705
350 706
350 726
350 736
350 741
350 750
350 779
350 797
350 858
350 877
350 933
350 990
351 461
351 558
351 638
351 640
351 725
351 782
351 829
351 840
351 906
351 920
351 951
351 997
351 999
352 360
352 414
352 419
352 427
352 476
352 511
352 526
352 551
352 575
352 594
352 610
352 624
352 625
352 642
352 671
352 708
352 738
352 793
352 818
352 822
352 839
352 845
352 863
352 924
352 935
353 452
353 496
353 497
353 567
353 706
353 776
353 954
354 369
354 405
354 433
354 456
354 469
354 483
354 513
354 551
354 598
354 601
354 637
354 646
354 659
354 668
354 684
354 781
354 783
354 837
354 844
354 916
354 917
354 933
354 938
355 418
355 430
355 644
355 705
355 710
355 877
355 895
356 370
356 392
356 393
356 395
356 417
356 429
356 447
356 488
356 500
356 561
356 571
356 596
356 641
356 683
356 685
356 692
356 731
356 735
356 760
356 765
356 769
356 776
356 869
356 872
356 902
356 955
356 980
356 986
357 616
357 637
357 668
357 671
357 697
357 769
357 824
357 854
357 885
357 928
357 961
358 443
358 450
358 557
358 571
358 672
358 678
358 780
358 843
358 868
358 893
358 986
358 997
359 410
359 579
359 665
359 781
359 853
359 877
360 368
360 398
360 439
360 465
360 571
360 591
360 614
360 847
360 859
360 980
360 981
361 388
361 438
361 506
361 520
361 539
361 582
361 625
361 765
361 923
361 952
361 998
362 379
362 420
362 423
362 433
362 517
362 575
362 599
362 686
362 735
362 768
362 824
362 858
362 874
362 940
362 963
362 985
362 988
363 383
363 500
363 573
363 588
363 606
363 728
363 827
363 883
363 911
363 946
363 949
363 963
364 368
364 443
364 470
364 489
364 530
364 546
364 714
364 733
364 764
364 830
364 874
364 875
364 945
364 994
365 450
365 466
365 478
365 483
365 536
365 542
365 671
365 741
365 754
365 830
365 946
365 952
366 489
366 651
366 660
366 676
366 745
366 817
366 948
367 376
367 407
367 470
367 486
367 530
367 538
367 557
367 660
367 702
367 806
367 923
367 937
367 998
368 437
368 644
368 674
368 696
368 800
368 823
368 852
368 888
368 911
369 382
369 438
369 462
369 501
369 545
369 610
369 623
369 630
369 640
369 677
369 679
369 693
369 722
369 761
369 762
369 765
369 808
369 820
369 826
369 836
369 891
369 940
369 959
369 976
370 395
370 459
370 487
370 525
370 538
370 684
370 754
370 798
370 803
370 849
370 937
371 426
371 479
371 640
371 667
371 734
371 754
371 768
371 774
371 777
371 782
371 848
371 957
372 389
372 393
372 404
372 448
372 449
372 492
372 516
372 652
372 659
372 709
372 732
372 786
372 942
372 963
373 395
373 546
373 567
373 580
373 699
373 704
373 770
373 819
373 860
373 909
373 934
373 960
373 987
373 994
374 407
374 443
374 515
374 521
374 550
374 765
374 786
374 797
374 892
374 896
374 935
374 951
375 412
375 413
375 500
375 630
375 664
375 713
375 797
375 810
375 946
375 949
375 996
376 450
376 553
376 557
376 660
376 678
376 702
376 721
376 769
376 812
376 830
376 874
376 923
376 986
376 998
377 472
377 697
377 732
377 741
377 754
377 797
377 806
377 856
377 889
377 900
378 433
378 536
378 581
378 697
378 776
378 927
378 953
379 468
379 544
379 550
379 583
379 641
379 749
379 837
379 854
379 971
379 988
380 467
380 526
380 585
380 662
380 669
380 678
380 733
380 760
380 791
380 831
380 861
380 931
381 569
381 719
381 756
381 762
381 777
381 948
382 439
382 484
382 573
382 581
382 683
382 863
382 946
382 949
383 433
383 437
383 443
383 485
383 531
383 582
383 618
383 634
383 671
383 681
383 710
383 745
383 846
383 953
383 983
384 721
384 797
384 905
385 416
385 429
385 567
385 595
385 688
385 799
385 836
385 851
385 900
385 969
385 986
386 443
386 540
386 582
386 750
386 902
387 448
387 457
387 524
387 693
387 754
387 792
387 881
387 942
387 973
388 403
388 404
388 417
388 450
388 493
388 506
388 507
388 532
388 558
388 575
388 582
388 594
388 646
388 659
388 686
388 709
388 716
388 723
388 731
388 752
388 796
388 800
388 801
388 808
388 813
388 824
388 840
388 873
388 911
388 935
388 952
388 967
388 972
389 416
389 444
389 545
389 706
389 725
389 743
389 780
389 795
389 953
389 967
390 400
390 440
390 451
390 464
390 504
390 515
390 517
390 543
390 552
390 559
390 613
390 619
390 654
390 665
390 725
390 744
390 759
390 812
390 819
390 914
390 963
390 978
390 999
391 443
391 483
391 584
391 745
391 747
391 815
391 839
391 883
391 885
391 921
391 936
392 457
392 486
392 541
392 599
392 676
392 695
392 751
392 855
392 950
393 541
393 600
393 651
393 712
393 721
393 767
393 792
393 797
393 922
393 956
393 957
393 986
394 593
394 773
394 779
395 401
395 487
395 684
395 697
395 723
395 799
395 860
395 863
395 874
395 938
395 969
396 527
396 670
396 724
396 745
396 780
396 790
396 822
396 884
397 432
397 711
397 712
397 790
397 821
397 823
397 850
397 900
397 934
397 936
398 518
398 662
398 803
398 845
398 994
399 416
399 527
399 528
399 833
399 850
400 526
400 541
400 664
400 679
400 839
401 443
401 706
401 721
401 799
401 834
401 874
401 935
402 677
402 696
402 852
402 865
402 900
402 948
403 430
403 491
403 502
403 537
403 545
403 604
403 612
403 672
403 695
403 714
403 716
403 729
403 748
403 798
403 818
403 833
403 838
403 841
403 845
403 848
403 909
403 917
403 937
403 958
404 434
404 484
404 613
404 618
404 633
404 716
404 742
404 842
404 902
404 903
404 970
405 648
405 724
405 855
405 959
405 973
406 433
406 512
406 684
406 751
406 755
406 818
406 854
407 475
407 548
407 551
407 569
407 640
407 647
407 660
407 702
407 923
407 969
408 423
408 425
408 475
408 531
408 548
408 648
408 677
408 682
408 693
408 730
408 796
408 847
408 866
409 699
409 701
409 815
409 990
410 452
410 471
410 579
410 639
410 654
410 666
410 781
410 785
410 833
410 853
410 921
411 458
411 490
411 520
411 533
411 541
411 579
411 599
411 612
411 674
411 746
411 795
411 830
411 867
411 925
411 992
412 426
412 495
412 664
412 713
412 725
412 762
412 898
412 967
412 996
413 443
413 475
413 495
413 525
413 592
413 664
413 713
413 854
413 921
413 996
414 427
414 500
414 604
414 774
414 791
414 793
414 836
414 844
415 441
415 482
415 495
415 570
415 633
415 677
415 972
416 479
416 569
416 646
416 737
416 863
416 921
417 573
417 693
417 744
417 860
417 902
417 936
418 434
418 596
418 624
418 659
418 745
418 785
418 797
418 815
418 820
418 821
418 822
418 829
418 884
418 917
419 428
419 441
419 471
419 565
419 725
419 776
419 884
419 905
419 994
420 433
420 504
420 538
420 575
420 597
420 750
420 768
420 824
420 885
420 903
420 963
420 969
420 988
421 444
421 518
421 526
421 756
421 942
422 443
422 452
422 514
422 741
422 883
422 937
422 990
423 425
423 442
423 451
423 488
423 523
423 595
423 747
423 759
423 793
423 795
423 811
423 827
423 847
423 871
424 444
424 452
424 493
424 497
424 502
424 524
424 621
424 836
424 876
424 928
424 962
425 438
425 514
425 546
425 946
426 586
426 771
426 966
426 982
427 470
427 669
427 671
427 785
427 791
427 793
427 829
427 844
427 998
428 495
428 496
428 514
428 567
428 568
428 588
428 690
428 701
428 729
428 799
428 817
428 830
428 900
428 901
428 904
428 977
429 439
429 444
429 558
429 567
429 630
429 701
429 717
429 758
429 774
429 851
429 854
429 858
429 880
429 900
429 919
429 978
430 641
430 644
430 765
430 769
430 895
430 911
431 520
431 525
431 526
431 534
431 540
431 769
431 796
431 877
431 978
432 757
432 790
432 828
432 884
432 947
433 466
433 467
433 485
433 501
433 517
433 543
433 548
433 549
433 557
433 575
433 640
433 661
433 686
433 695
433 700
433 732
433 755
433 768
433 824
433 827
433 853
433 857
433 906
433 917
433 929
433 960
433 963
433 977
433 985
433 988
433 994
434 453
434 573
434 677
434 690
434 745
434 753
434 824
434 929
434 947
435 485
435 489
435 546
435 697
435 764
435 790
435 875
435 945
436 454
436 485
436 555
436 693
436 721
436 863
436 986
437 459
437 485
437 630
437 637
437 666
437 681
437 703
437 763
437 820
437 829
437 846
437 863
437 901
437 948
437 983
438 557
438 597
438 648
438 721
438 732
438 788
438 797
438 820
438 846
438 853
438 900
438 976
439 498
439 546
439 574
439 587
439 628
439 661
439 765
439 785
439 786
439 795
439 797
439 817
439 874
439 960
439 973
440 458
440 464
440 493
440 543
440 554
440 576
440 619
440 735
440 867
440 911
440 975
440 978
441 458
441 476
441 482
441 493
441 519
441 527
441 546
441 567
441 595
441 633
441 635
441 672
441 692
441 694
441 712
441 732
441 766
441 782
441 792
441 796
441 834
441 927
441 935
441 960
441 963
441 976
441 980
442 496
442 564
442 569
442 657
442 754
442 757
442 762
442 786
442 930
442 948
443 445
443 464
443 510
443 525
443 531
443 625
443 627
443 645
443 677
443 691
443 742
443 803
443 849
443 883
443 884
443 905
443 940
443 969
443 976
444 466
444 480
444 568
444 576
444 577
444 589
444 612
444 616
444 662
444 680
444 736
444 782
444 783
444 888
444 945
444 964
444 989
444 993
445 507
445 573
445 786
445 797
445 935
446 512
446 818
446 820
446 864
447 507
447 617
447 708
447 877
447 917
447 918
447 936
447 948
447 977
447 982
448 449
448 488
448 494
448 516
448 532
448 535
448 598
448 652
448 659
448 712
448 717
448 720
448 754
448 760
448 769
448 777
448 847
449 479
449 516
449 535
449 817
449 909
449 935
450 480
450 506
450 554
450 563
450 569
450 600
450 605
450 709
450 712
450 722
450 725
450 732
450 828
450 852
450 855
450 874
450 882
450 903
450 955
451 475
451 499
451 573
451 631
451 672
451 693
451 720
451 804
451 860
451 902
451 931
451 936
451 942
451 953
451 974
452 524
452 557
452 658
452 773
452 884
452 909
452 911
452 949
452 951
452 995
453 567
453 640
453 677
453 690
453 754
453 823
453 861
453 950
454 502
454 551
454 580
454 729
454 875
454 885
454 937
454 998
455 514
455 520
455 604
455 626
455 629
455 745
455 844
455 845
455 863
455 907
455 923
455 925
455 931
455 948
456 541
456 617
456 733
456 788
456 877
456 886
456 919
456 987
456 998
457 541
457 560
457 711
457 717
457 751
457 887
457 987
458 519
458 607
458 635
458 651
458 666
458 717
458 937
458 940
459 483
459 487
459 763
459 803
460 651
460 712
460 777
461 627
461 630
461 640
461 681
461 732
461 746
461 769
461 782
461 820
461 906
461 946
461 960
461 994
462 484
462 515
462 545
462 573
462 607
462 629
462 693
462 802
462 941
463 612
463 658
463 715
463 724
463 755
463 967
464 526
464 607
464 619
464 647
464 812
464 824
464 848
464 930
464 999
465 520
465 557
465 584
465 620
465 654
465 678
465 843
466 576
466 860
466 908
466 931
466 949
467 547
467 574
467 702
467 733
467 740
467 760
467 997
468 492
468 609
468 661
468 662
468 721
468 731
468 874
468 877
468 879
468 932
468 952
469 490
469 533
469 697
469 854
469 989
470 581
470 655
470 844
470 864
470 882
471 742
471 785
471 877
471 900
471 918
471 977
472 482
472 526
472 656
472 946
473 512
473 538
473 552
473 642
473 651
473 711
473 712
473 789
473 978
474 574
474 668
474 701
474 735
474 745
474 747
474 777
474 839
474 874
475 500
475 505
475 508
475 540
475 577
475 593
475 611
475 667
475 677
475 681
475 695
475 697
475 699
475 718
475 766
475 828
475 840
475 855
475 919
475 922
475 956
475 970
476 483
476 485
476 540
476 584
476 617
476 750
476 874
476 973
477 596
477 599
477 604
477 612
477 667
477 736
477 753
477 789
477 790
477 808
477 845
477 925
477 931
477 937
478 508
478 516
478 650
478 671
478 695
478 741
478 752
478 764
478 830
478 860
478 900
478 975
479 509
479 537
479 546
479 681
479 726
479 737
479 740
479 777
479 786
479 793
479 816
479 820
479 921
479 986
480 685
480 732
480 882
480 997
481 522
481 699
481 816
481 839
481 863
481 937
482 635
482 830
482 838
482 890
483 526
483 646
483 881
483 916
483 938
484 486
484 492
484 523
484 557
484 558
484 581
484 591
484 601
484 708
484 797
484 883
484 942
484 954
485 533
485 537
485 557
485 587
485 612
485 672
485 679
485 681
485 693
485 703
485 712
485 720
485 745
485 793
485 819
485 846
485 893
485 898
485 932
485 941
485 977
485 983
486 620
486 902
486 912
486 942
486 962
487 514
487 520
487 525
487 538
487 654
487 691
487 763
487 792
487 840
487 948
487 985
488 512
488 581
488 612
488 625
488 633
488 638
488 656
488 715
488 755
488 911
488 967
489 546
489 555
489 567
489 593
489 597
489 764
489 872
489 875
489 945
489 977
490 515
490 533
490 557
490 645
490 674
490 697
490 720
490 768
490 899
491 584
491 613
491 638
491 763
491 823
491 984
492 586
492 646
492 712
492 827
492 905
492 964
493 545
493 578
493 672
493 780
493 797
493 818
493 823
493 827
493 893
494 609
494 675
494 777
494 852
494 856
494 900
494 949
495 532
495 644
495 693
495 886
495 910
495 924
495 937
495 996
496 554
496 599
496 756
496 761
496 769
496 911
496 943
496 958
497 621
497 715
497 776
497 844
497 857
497 891
497 893
497 995
498 539
498 630
498 682
498 696
498 722
498 751
498 902
498 969
498 973
498 995
499 548
499 562
499 662
499 843
499 969
500 596
500 685
500 765
500 769
500 799
500 823
500 980
501 582
501 646
501 697
501 709
501 757
501 772
501 825
501 946
501 951
502 538
502 761
502 845
502 998
503 598
503 604
503 662
503 670
503 818
503 852
503 855
503 874
504 518
504 542
504 862
504 972
505 593
505 726
505 823
505 841
505 855
505 881
505 919
505 970
505 990
506 543
506 578
506 582
506 701
506 725
506 777
506 801
506 856
506 909
506 952
507 526
507 532
507 545
507 841
507 874
507 900
508 532
508 790
508 993
508 998
509 563
509 667
509 725
509 732
509 854
509 926
510 535
510 538
510 609
510 647
510 692
510 743
510 803
510 810
510 991
511 622
511 777
511 839
511 859
511 863
511 924
512 513
512 519
512 541
512 557
512 572
512 592
512 671
512 684
512 689
512 761
512 803
512 818
512 867
512 965
512 969
513 640
513 646
513 746
513 749
513 790
513 906
513 914
514 829
514 943
515 607
515 629
515 706
515 802
515 812
515 909
515 911
515 941
515 969
515 996
516 534
516 535
516 540
516 659
516 670
516 905
516 932
516 985
517 564
517 619
517 652
517 714
517 801
517 812
517 853
517 947
517 999
518 542
518 574
518 760
518 988
519 532
519 591
519 614
519 859
519 860
519 887
519 896
519 928
519 968
519 981
520 556
520 563
520 573
520 595
520 620
520 649
520 660
520 697
520 716
520 745
520 751
520 757
520 761
520 786
520 815
520 817
520 834
520 840
520 865
520 958
520 994
520 999
521 567
521 584
521 595
521 786
521 797
521 869
521 939
522 532
522 573
522 636
522 650
522 727
522 736
522 792
522 857
522 902
522 911
522 926
522 969
523 586
523 614
523 671
523 697
523 710
523 789
523 827
523 831
523 855
523 897
523 940
523 946
524 776
524 862
524 905
524 950
524 952
524 954
524 976
524 995
525 538
525 599
525 640
525 726
525 796
525 882
526 532
526 602
526 606
526 639
526 669
526 679
526 688
526 709
526 718
526 785
526 820
526 841
526 902
526 939
527 528
527 534
527 546
527 630
527 739
527 848
528 534
528 631
528 645
528 654
528 860
528 890
529 541
529 652
529 751
529 794
529 812
529 872
529 944
530 546
530 592
530 684
530 692
530 743
530 803
530 939
530 952
530 973
530 991
530 999
531 554
531 579
531 643
531 696
531 749
531 855
531 923
532 565
532 575
532 606
532 631
532 655
532 679
532 836
532 841
532 962
533 948
534 631
534 731
534 778
534 864
534 902
534 955
535 764
535 792
535 924
535 963
535 982
535 994
536 575
536 603
536 766
536 821
536 875
536 912
536 973
537 712
537 721
537 848
537 937
537 973
538 579
538 582
538 732
538 734
538 763
538 796
538 843
538 877
539 662
539 683
539 690
539 722
539 915
540 546
540 568
540 592
540 666
540 687
540 701
540 702
540 750
540 795
540 796
540 952
540 977
540 981
541 560
541 567
541 614
541 623
541 751
541 769
541 794
541 798
541 807
541 826
541 882
541 896
541 902
541 984
541 998
542 671
542 779
542 862
543 790
543 999
544 550
544 618
544 708
544 724
544 793
544 798
544 850
544 854
544 886
544 935
545 593
545 646
545 725
545 795
545 916
545 958
546 557
546 570
546 588
546 597
546 683
546 707
546 744
546 764
546 865
546 869
546 875
546 933
546 945
546 949
547 548
547 608
548 814
548 863
548 872
548 881
548 948
549 590
549 599
549 618
549 619
549 786
549 790
550 583
550 625
550 771
550 790
550 798
550 854
550 902
550 969
551 672
551 706
551 717
551 741
551 804
551 933
551 939
552 604
552 714
552 776
552 816
552 845
552 907
552 914
552 921
552 931
552 963
553 610
553 640
553 698
553 700
553 715
553 716
553 721
553 732
553 740
553 754
553 790
553 792
553 807
553 843
553 922
553 999
554 558
554 598
554 643
554 644
554 650
554 673
554 674
554 731
554 817
554 839
554 855
554 872
554 888
554 964
555 627
555 767
555 790
555 823
555 904
556 587
556 697
556 724
556 762
556 815
556 834
556 963
556 978
557 573
557 597
557 644
557 660
557 669
557 671
557 702
557 723
557 729
557 740
557 919
557 923
557 924
557 940
557 971
558 608
558 623
558 708
558 714
558 736
558 751
558 882
558 939
558 942
558 953
559 668
559 701
559 735
559 891
559 912
559 961
560 677
560 751
560 785
560 798
560 862
560 959
560 973
561 599
561 825
561 871
562 584
562 682
562 691
562 811
562 914
563 627
563 652
563 824
563 829
563 843
563 874
563 969
564 572
564 666
564 670
564 698
564 718
564 732
564 738
564 787
564 834
564 855
564 888
564 913
564 924
564 986
565 576
565 617
565 672
565 714
565 721
565 724
565 797
565 882
565 903
565 905
565 908
565 927
566 738
566 769
566 784
566 790
566 916
566 946
566 949
566 958
566 978
567 600
567 650
567 686
567 738
567 776
567 777
567 778
567 794
567 832
567 836
567 849
567 863
567 890
568 687
568 741
568 750
568 831
568 927
568 950
568 951
569 596
569 662
569 762
569 786
569 799
569 948
570 571
570 673
570 704
570 710
570 719
570 726
570 903
570 916
570 940
570 963
570 999
571 940
571 994
572 647
572 667
572 684
572 816
572 818
572 834
572 918
572 935
573 610
573 640
573 646
573 649
573 671
573 693
573 720
573 750
573 756
573 781
573 799
573 859
573 860
573 869
573 884
573 902
573 936
573 973
574 598
574 785
574 858
574 880
574 901
574 937
574 948
575 694
575 730
575 737
575 761
575 768
575 824
575 854
575 956
575 963
575 985
575 988
576 581
576 737
576 769
576 857
576 911
576 986
576 989
577 889
577 919
577 970
578 611
578 969
578 975
579 606
579 806
579 850
579 853
579 902
579 996
580 599
580 710
580 770
580 819
580 850
580 934
580 946
580 960
581 716
581 769
581 814
581 895
581 952
581 953
581 976
581 984
582 716
582 799
582 800
582 801
582 819
582 952
582 962
583 612
583 784
583 799
583 854
583 884
583 893
583 925
583 969
583 981
584 627
584 658
584 682
584 691
584 745
584 787
584 788
584 803
584 808
584 811
584 862
584 863
584 914
585 712
585 754
585 771
585 896
585 965
585 998
586 646
586 789
586 815
586 828
586 877
587 636
587 702
587 745
587 777
587 785
587 991
588 663
588 670
588 799
588 834
588 911
588 923
588 943
589 590
589 650
589 655
589 704
589 751
589 791
589 793
590 680
590 811
590 850
590 894
590 899
590 928
590 968
590 995
591 614
591 665
591 712
591 775
591 834
591 981
592 608
592 630
592 647
592 692
592 723
592 803
593 888
593 902
593 919
593 982
594 651
594 693
594 712
594 746
594 965
595 604
595 615
595 697
595 757
595 776
595 790
595 815
595 824
595 834
595 855
595 923
595 930
595 958
595 974
596 639
596 721
596 731
596 765
596 769
596 856
596 914
596 980
597 732
597 764
597 824
598 643
598 724
598 790
598 807
598 855
598 884
598 937
598 970
599 604
599 617
599 639
599 648
599 654
599 703
599 763
599 839
599 866
599 867
599 869
599 877
599 890
599 891
599 901
599 927
599 952
599 956
599 965
599 998
600 721
600 783
600 849
600 890
601 705
601 714
601 830
601 845
601 914
601 942
601 978
601 990
602 646
602 731
602 778
602 944
602 955
603 629
603 632
603 667
603 706
603 714
603 766
603 944
603 953
603 973
604 626
604 640
604 719
604 726
604 727
604 786
604 845
604 872
604 907
604 924
604 931
605 685
605 732
605 844
605 855
605 861
605 882
605 900
605 903
605 923
605 953
606 631
606 688
606 841
606 842
606 845
606 855
606 933
607 644
607 744
607 768
607 784
607 802
607 941
607 968
608 635
608 939
608 981
609 613
609 877
609 904
610 629
610 662
610 721
610 792
610 851
610 879
610 922
610 972
611 805
611 899
612 681
612 724
612 736
612 764
612 765
612 893
613 630
613 842
613 943
613 981
614 754
614 809
614 863
614 911
614 981
615 618
615 630
615 694
615 714
615 725
615 889
616 664
616 673
616 697
616 772
616 846
616 959
616 970
616 975
617 721
617 873
617 884
618 676
618 689
618 725
618 758
618 770
618 798
618 843
618 926
619 722
619 782
619 812
619 919
619 940
619 948
619 978
619 999
620 662
620 786
620 824
620 962
621 665
621 709
621 722
621 776
621 780
621 857
622 666
622 680
622 764
622 850
622 998
623 653
623 673
623 710
623 719
623 797
623 923
623 940
623 949
623 951
624 647
624 648
624 689
624 693
624 866
624 898
624 902
624 963
625 652
625 672
625 774
625 776
625 786
625 826
625 835
625 849
625 860
625 878
625 950
625 991
626 696
626 803
626 818
626 845
626 931
626 976
627 648
627 766
627 767
627 907
627 921
628 636
628 691
628 712
628 785
628 863
628 942
628 948
629 632
629 744
629 745
629 802
629 830
629 934
629 941
629 951
630 634
630 642
630 644
630 661
630 698
630 740
630 752
630 803
630 818
630 826
630 870
630 936
630 956
631 778
631 906
631 915
631 992
631 994
632 677
632 690
632 753
632 776
632 843
632 916
632 957
633 635
633 877
634 642
634 669
634 854
634 919
634 986
635 683
635 855
636 644
636 785
636 901
637 753
637 829
637 869
637 911
638 689
638 715
638 724
638 813
638 967
639 648
639 860
639 865
639 879
639 927
639 938
640 652
640 742
640 746
640 779
640 782
640 791
640 903
640 906
640 915
640 920
640 944
641 685
641 731
641 765
641 769
641 872
641 880
641 891
641 980
642 698
642 935
642 968
643 685
643 803
643 855
643 979
644 696
644 789
644 816
644 829
644 847
644 852
644 883
644 911
644 953
645 786
645 880
645 883
645 991
646 661
646 677
646 704
646 719
646 737
646 740
646 916
646 938
646 976
646 988
647 743
647 803
647 892
647 953
648 782
648 803
648 839
648 842
648 918
648 927
649 693
649 720
649 769
649 860
649 870
649 902
649 936
649 959
649 967
650 725
650 897
650 911
651 712
651 764
651 838
651 952
652 665
652 697
652 769
652 810
652 826
652 835
652 870
652 878
652 907
652 949
652 950
652 958
652 967
653 723
653 729
653 739
653 751
653 776
653 799
653 874
653 938
654 657
654 675
654 678
654 697
654 786
654 824
654 843
654 868
654 895
654 953
654 971
654 984
655 693
655 746
655 793
655 820
655 844
656 745
656 764
656 806
656 809
656 841
656 889
656 995
657 682
657 795
657 843
657 875
657 971
658 867
658 868
658 937
658 992
659 824
659 839
660 682
660 702
660 745
660 819
660 838
660 863
660 923
661 877
661 987
662 665
662 680
662 696
662 710
662 741
662 813
662 816
662 852
662 939
662 951
662 966
662 968
662 972
662 996
663 776
663 797
663 854
663 943
664 689
664 713
664 765
664 767
664 886
664 894
664 910
664 934
664 987
665 902
665 951
665 970
665 972
665 998
666 670
666 700
666 718
666 738
666 787
666 834
666 852
666 913
666 986
667 734
667 754
667 774
667 777
667 794
667 830
668 701
668 723
668 728
668 735
668 736
668 797
668 870
668 981
669 705
669 825
669 852
670 690
670 697
670 738
670 776
670 863
670 986
670 989
671 739
671 741
671 782
671 789
671 793
671 807
671 809
671 829
671 830
671 931
671 940
672 677
672 735
672 764
672 780
672 827
672 847
672 864
672 866
672 869
672 893
672 981
672 986
672 997
673 694
673 710
673 719
673 725
673 790
674 739
674 797
674 942
675 701
675 719
675 790
675 864
675 959
675 963
675 969
676 677
676 725
676 792
676 797
676 808
676 817
676 887
676 946
677 681
677 754
677 966
677 967
677 971
678 843
678 868
678 923
678 924
679 794
679 841
679 902
679 924
679 938
680 989
680 992
681 701
681 732
681 765
681 839
681 846
681 955
681 961
682 712
682 732
682 811
683 694
683 722
683 734
683 856
683 918
683 960
684 715
684 818
685 727
685 765
685 769
685 874
685 883
685 980
685 985
686 692
686 720
686 784
686 824
686 900
686 926
686 963
686 988
687 750
687 785
687 951
688 722
688 756
688 841
688 994
689 750
689 762
689 786
689 866
689 954
690 698
690 753
690 820
690 842
690 952
691 758
691 785
691 822
691 876
691 901
691 986
691 994
692 710
692 803
692 829
692 937
692 948
692 991
693 720
693 745
693 767
693 807
693 860
693 891
693 902
693 936
693 983
693 994
694 722
694 786
694 883
694 938
694 952
694 953
695 748
695 832
695 838
695 848
695 937
696 895
697 710
697 718
697 731
697 744
697 757
697 759
697 775
697 795
697 802
697 815
697 834
697 865
697 944
697 952
697 957
697 958
697 990
698 724
699 717
699 987
700 721
700 745
700 798
700 905
700 935
701 719
701 721
701 728
701 735
701 758
701 774
701 786
701 800
701 824
701 843
701 851
701 884
701 960
701 961
701 979
702 751
702 776
702 842
702 871
702 923
702 981
703 721
703 813
703 870
703 905
703 921
703 932
704 793
704 795
704 844
704 944
705 710
705 820
705 884
705 910
705 921
705 939
706 760
706 803
706 879
706 933
706 939
707 711
707 778
707 823
707 878
707 988
708 741
708 839
708 863
708 887
709 786
709 790
709 875
709 957
709 959
709 969
710 920
710 940
710 967
711 823
711 835
711 904
712 725
712 738
712 742
712 760
712 812
712 886
712 893
712 899
712 906
712 935
712 962
712 965
712 971
712 974
713 822
713 855
713 859
713 948
713 996
714 823
714 926
714 942
715 724
715 797
715 844
715 967
716 725
716 728
716 740
716 800
716 946
716 952
717 900
717 939
718 770
718 913
718 960
718 986
719 793
719 824
719 940
719 961
720 724
720 854
720 860
720 902
720 936
721 763
721 792
721 798
721 824
721 825
721 876
721 882
721 905
721 908
721 922
721 931
721 966
721 986
722 728
722 773
722 793
722 823
722 829
722 856
722 878
722 915
722 916
722 973
722 977
722 998
723 730
723 739
723 779
723 874
723 878
723 949
723 999
724 725
724 734
724 752
724 755
724 762
724 779
724 819
724 833
724 855
724 869
724 879
724 885
724 894
724 895
724 954
724 966
724 967
725 748
725 772
725 795
725 804
725 824
725 877
725 968
725 969
725 987
726 740
726 802
726 816
727 831
727 911
727 963
727 974
728 735
728 771
728 776
728 818
728 830
728 926
728 961
728 979
729 739
729 745
729 792
729 823
729 891
729 939
729 998
730 733
730 745
730 783
730 861
731 754
731 763
731 765
731 769
731 866
731 973
731 980
732 810
732 882
732 902
732 936
732 977
732 978
732 999
733 760
733 788
733 861
733 942
734 754
734 777
734 808
734 848
735 765
735 769
735 860
735 884
735 948
735 961
735 979
735 990
736 796
736 803
736 942
736 977
737 740
737 754
737 816
737 969
738 790
738 986
739 799
739 850
739 874
739 935
739 944
740 816
740 921
740 972
741 769
741 805
741 830
741 941
741 977
742 823
742 895
742 917
742 977
743 803
743 810
743 956
743 983
743 992
744 753
744 905
744 935
744 940
744 941
744 968
745 749
745 760
745 776
745 803
745 822
745 825
745 829
745 845
745 884
745 950
745 963
746 754
746 782
746 793
746 920
746 923
746 977
747 835
747 854
747 871
747 905
747 920
747 955
747 995
748 755
748 838
748 937
748 949
748 964
749 777
749 780
749 917
749 935
749 977
749 982
750 839
751 763
751 792
751 794
751 860
751 872
751 881
751 888
751 945
751 952
751 955
751 961
751 969
752 777
752 790
752 844
752 935
752 966
752 969
752 986
753 777
754 772
754 774
754 777
754 840
754 868
754 900
754 913
754 922
754 957
754 994
755 770
755 967
756 762
756 863
756 948
756 952
756 973
756 981
756 992
757 815
757 834
757 946
757 958
758 823
758 873
758 880
758 900
758 949
759 777
759 790
759 792
759 935
760 794
760 874
760 952
761 820
761 833
761 976
762 794
762 849
762 893
762 948
763 921
763 973
764 875
764 884
764 919
765 769
765 771
765 925
765 949
765 974
765 980
766 772
766 843
766 895
766 910
766 939
766 973
767 830
767 904
767 999
768 793
768 818
768 824
768 963
768 985
769 786
769 875
769 882
769 907
769 921
769 925
769 937
769 941
769 948
769 952
769 980
770 824
770 909
770 934
770 960
770 977
771 789
771 862
771 988
772 843
772 885
772 986
773 776
773 780
773 792
773 793
773 821
773 946
773 973
774 777
774 829
774 973
775 786
775 896
775 935
775 955
776 800
776 829
776 850
776 857
776 913
776 927
776 951
776 954
776 967
776 978
776 995
777 844
777 892
777 932
777 935
777 957
777 975
778 851
778 854
780 827
780 834
780 855
780 892
780 893
780 906
780 997
781 790
781 860
781 918
782 819
782 820
782 906
782 935
782 949
782 971
782 999
783 832
783 882
783 890
783 973
784 785
784 946
784 949
785 853
785 865
785 901
785 917
785 968
785 985
786 797
786 871
786 892
786 896
786 925
786 928
786 935
786 953
786 957
786 958
786 984
787 902
787 904
787 913
787 986
787 994
788 825
788 839
788 931
788 937
788 969
788 976
789 891
789 965
790 793
790 803
790 829
790 845
790 849
790 951
790 959
790 969
790 976
791 804
791 844
791 881
791 963
792 858
792 879
792 922
792 948
792 949
792 963
792 981
792 998
793 817
793 844
793 884
793 981
794 809
794 922
794 946
795 839
795 862
795 906
795 980
796 859
796 971
796 982
797 806
797 808
797 831
797 845
797 856
797 875
797 892
797 896
797 935
797 984
797 986
798 854
798 962
798 999
799 818
799 824
799 874
799 967
799 998
800 803
800 921
800 952
801 854
801 902
801 952
803 833
803 885
803 921
803 971
803 990
803 991
804 899
805 825
805 839
805 897
805 927
806 856
806 889
806 963
806 966
807 922
808 921
809 856
809 889
809 912
809 956
809 962
809 972
810 885
810 902
810 928
810 935
810 953
811 823
811 839
811 886
811 947
811 967
812 830
812 890
812 978
812 999
813 883
813 902
813 904
813 951
813 966
813 968
813 972
814 881
814 928
815 865
816 846
816 849
816 921
816 931
816 942
817 887
818 845
818 877
819 845
819 855
819 909
819 934
819 960
819 981
820 833
820 985
821 830
821 877
821 952
821 973
821 999
822 829
822 884
822 924
823 900
823 959
823 998
824 963
824 981
824 984
824 985
824 988
824 989
826 846
826 897
826 911
826 946
826 950
827 855
827 864
828 908
828 958
829 854
829 884
829 959
829 963
829 964
829 965
830 850
830 923
830 939
830 945
830 972
830 976
831 926
831 952
832 884
832 890
832 931
833 839
834 865
834 992
835 856
835 935
835 950
836 849
836 858
836 880
836 935
837 854
838 848
838 900
838 937
839 863
839 869
839 896
839 921
839 924
839 959
839 967
840 852
840 855
840 970
841 868
841 923
841 944
841 967
842 992
843 868
843 957
843 971
844 972
845 907
845 925
845 931
845 986
845 994
846 967
846 983
847 871
848 893
848 919
848 937
848 991
849 890
849 913
850 894
850 898
850 899
850 930
851 873
851 880
851 900
852 994
854 859
854 879
854 911
854 942
855 880
855 892
855 919
855 926
855 957
855 977
855 999
856 874
856 889
856 913
857 954
857 999
858 900
858 903
858 935
859 911
859 981
860 876
860 896
860 902
860 936
860 946
860 948
861 877
862 885
862 907
862 948
862 949
863 883
863 924
863 932
863 960
864 893
864 997
864 998
865 912
865 958
865 964
865 994
867 902
867 907
869 930
869 938
871 912
873 880
873 900
873 904
873 937
875 945
876 884
876 928
876 937
876 953
877 932
877 976
877 987
878 959
878 977
879 922
879 962
880 900
880 911
881 904
882 934
883 909
883 986
884 906
884 952
885 906
885 955
886 910
886 996
887 967
888 935
888 973
888 994
889 921
889 944
891 956
891 972
892 935
892 984
892 992
893 894
893 997
894 952
894 986
896 927
896 935
896 948
896 984
897 935
897 974
898 899
899 948
900 938
900 992
901 911
901 953
902 936
902 948
902 955
902 959
902 995
903 923
905 918
905 966
905 986
906 920
906 954
906 984
907 925
907 931
907 955
909 946
909 960
911 926
911 930
911 974
912 951
912 962
913 953
913 972
913 986
913 998
915 964
915 975
916 922
916 938
917 918
917 977
917 982
918 942
918 954
918 977
918 982
919 960
919 970
919 982
920 923
920 962
925 931
925 970
926 974
927 937
927 942
927 956
927 974
928 931
928 953
934 948
934 960
935 962
935 966
935 984
935 988
936 993
937 969
937 971
937 999
940 988
942 943
942 963
942 975
943 962
944 946
944 955
945 951
945 972
945 988
946 949
946 990
948 950
948 962
951 953
951 966
951 968
951 970
951 972
951 986
952 973
953 975
953 981
955 983
957 977
958 977
959 969
961 979
963 982
963 985
963 988
964 986
966 977
968 972
969 984
970 986
972 974
972 994
977 982
978 999
