# LFR-like benchmark
# Nodes: 1000, Edges: 7723, Communities: 99
0 86
0 125
0 180
0 190
0 208
0 222
0 270
0 340
0 387
0 547
0 548
0 856
0 881
0 948
1 90
1 225
1 320
1 403
1 537
1 560
1 580
1 733
1 748
1 848
1 937
1 965
2 112
2 133
2 142
2 175
2 283
2 336
2 610
2 792
2 879
2 928
3 52
3 132
3 168
3 247
3 315
3 352
3 354
3 481
3 691
3 708
3 839
3 863
3 924
4 11
4 28
4 71
4 106
4 144
4 167
4 236
4 250
4 421
4 488
4 504
4 542
4 646
4 706
4 776
4 798
4 862
5 61
5 142
5 227
5 294
5 330
5 474
5 559
5 665
5 668
5 701
5 710
5 728
5 785
5 792
5 796
5 935
5 961
5 979
6 38
6 71
6 117
6 146
6 169
6 185
6 194
6 201
6 267
6 283
6 316
6 343
6 359
6 410
6 414
6 476
6 531
6 579
6 641
6 671
6 703
6 743
6 756
6 781
6 837
6 853
6 986
7 11
7 56
7 155
7 201
7 206
7 209
7 216
7 227
7 308
7 404
7 817
7 842
8 95
8 123
8 255
8 259
8 261
8 263
8 471
8 632
8 689
8 753
8 866
8 885
8 993
9 91
9 131
9 337
9 388
9 506
9 532
9 565
9 582
9 724
9 921
9 952
10 22
10 65
10 99
10 199
10 325
10 391
10 443
10 694
10 725
10 839
10 863
10 883
10 935
10 940
11 28
11 45
11 250
11 272
11 397
11 421
11 542
11 747
11 751
12 38
12 96
12 98
12 109
12 245
12 264
12 277
12 428
12 496
12 514
12 663
12 780
12 951
13 27
13 120
13 175
13 182
13 515
13 602
13 637
13 646
13 746
13 747
13 798
13 869
13 907
13 920
13 964
14 41
14 114
14 124
14 163
14 171
14 346
14 365
14 478
14 483
14 671
14 691
14 741
14 769
14 830
14 977
15 112
15 123
15 134
15 262
15 478
15 631
15 660
15 713
15 755
15 808
15 817
15 823
15 887
16 24
16 53
16 129
16 229
16 243
16 331
16 519
16 602
16 636
16 725
16 944
16 955
17 38
17 64
17 354
17 388
17 483
17 627
17 646
17 773
17 815
17 938
18 169
18 196
18 209
18 219
18 371
18 521
18 564
18 590
18 667
18 717
18 754
18 774
18 777
18 857
18 863
18 933
18 957
19 171
19 235
19 339
19 360
19 406
19 446
19 512
19 557
19 572
19 792
19 818
20 60
20 72
20 143
20 152
20 266
20 299
20 444
20 457
20 466
20 480
20 576
20 580
20 585
20 680
20 697
20 835
20 961
21 67
21 128
21 210
21 249
21 267
21 358
21 439
21 578
21 585
21 611
21 645
21 725
21 729
21 732
21 805
22 182
22 199
22 300
22 325
22 443
22 584
22 925
22 946
22 967
23 33
23 114
23 296
23 300
23 326
23 554
23 681
23 765
23 828
23 870
23 957
23 963
24 32
24 34
24 117
24 234
24 318
24 327
24 434
24 590
24 635
24 640
24 682
24 748
24 789
24 790
24 834
24 850
24 894
24 898
24 899
24 906
24 914
24 920
24 968
24 969
25 70
25 105
25 323
25 356
25 403
25 537
25 695
25 848
25 873
25 913
25 937
26 112
26 134
26 178
26 307
26 618
26 676
26 695
26 808
26 817
26 860
27 47
27 120
27 191
27 197
27 255
27 403
27 441
27 492
27 637
27 765
27 777
27 869
28 45
28 66
28 230
28 250
28 286
28 312
28 421
28 429
28 455
28 504
28 518
28 542
28 579
28 614
28 779
28 862
28 892
28 981
29 184
29 273
29 279
29 356
29 418
29 433
29 456
29 557
29 570
29 623
29 664
29 719
29 940
29 974
30 47
30 71
30 127
30 143
30 151
30 441
30 478
30 503
30 531
30 554
30 660
30 733
30 745
30 834
30 855
30 888
30 946
31 76
31 209
31 249
31 262
31 308
31 322
31 340
31 411
31 490
31 492
31 658
31 674
31 969
32 197
32 234
32 327
32 590
32 747
32 850
32 856
32 860
32 894
32 899
33 60
33 76
33 94
33 103
33 119
33 126
33 198
33 208
33 215
33 251
33 295
33 322
33 339
33 348
33 350
33 381
33 392
33 394
33 409
33 492
33 495
33 524
33 540
33 549
33 618
33 699
33 705
33 751
33 759
33 779
33 800
33 843
33 880
33 924
33 957
33 990
34 47
34 81
34 127
34 259
34 268
34 269
34 385
34 540
34 584
34 677
34 859
35 115
35 135
35 312
35 426
35 523
35 600
35 605
35 771
35 850
35 967
36 48
36 160
36 175
36 176
36 205
36 234
36 324
36 356
36 365
36 476
36 485
36 562
36 584
36 682
36 702
36 758
36 811
36 823
37 61
37 124
37 214
37 275
37 357
37 520
37 652
37 663
37 826
37 835
37 950
37 953
37 975
37 990
38 58
38 64
38 167
38 170
38 283
38 293
38 323
38 377
38 425
38 445
38 547
38 549
38 569
38 656
38 745
38 806
38 809
38 856
38 889
38 944
39 123
39 193
39 200
39 232
39 354
39 441
39 458
39 482
39 633
39 635
39 649
39 835
39 941
39 972
40 162
40 215
40 262
40 277
40 366
40 448
40 516
40 535
40 659
40 844
40 955
41 114
41 163
41 384
41 388
41 478
41 671
41 689
41 754
41 830
41 952
41 982
41 992
42 92
42 251
42 275
42 309
42 393
42 484
42 560
42 583
42 585
42 651
42 712
42 821
42 886
42 955
42 965
43 73
43 350
43 709
43 818
43 857
43 909
44 96
44 111
44 418
44 515
44 634
44 802
44 869
44 941
45 109
45 384
45 421
45 493
45 504
45 574
45 732
45 862
46 113
46 177
46 315
46 623
46 694
46 722
46 728
46 902
47 102
47 127
47 143
47 215
47 448
47 554
47 598
47 855
47 875
48 49
48 160
48 193
48 220
48 554
48 562
48 584
48 682
48 793
48 897
48 914
48 932
49 109
49 165
49 170
49 428
49 495
49 496
49 546
49 588
49 943
49 956
49 999
50 83
50 291
50 434
50 562
50 677
50 930
50 959
51 128
51 210
51 341
51 879
51 960
51 975
52 143
52 214
52 290
52 294
52 319
52 360
52 591
52 614
52 718
52 952
52 981
52 994
53 77
53 86
53 129
53 160
53 229
53 243
53 256
53 271
53 279
53 329
53 331
53 388
53 395
53 404
53 573
53 602
53 656
53 701
53 735
53 737
53 759
53 765
53 810
53 825
53 860
53 944
53 955
54 287
54 335
54 369
54 372
54 460
54 761
54 785
54 820
54 829
54 976
55 132
55 202
55 215
55 310
55 382
55 441
55 447
55 465
55 485
55 553
55 566
55 577
55 640
55 784
55 902
55 946
56 98
56 107
56 163
56 209
56 225
56 255
56 287
56 424
56 457
56 590
56 613
56 805
56 830
57 69
57 147
57 243
57 301
57 310
57 323
57 388
57 402
57 428
57 450
57 573
57 605
57 732
57 806
57 855
57 882
58 250
58 377
58 496
58 809
58 856
58 889
58 936
59 164
59 390
59 573
59 649
59 693
59 707
59 720
59 854
59 860
59 902
60 94
60 119
60 126
60 141
60 145
60 208
60 212
60 251
60 252
60 295
60 318
60 322
60 333
60 340
60 350
60 394
60 409
60 455
60 505
60 549
60 615
60 618
60 626
60 635
60 684
60 699
60 705
60 731
60 779
60 856
60 864
60 901
60 992
61 95
61 98
61 120
61 252
61 381
61 442
61 569
61 596
61 762
61 798
61 809
61 948
61 999
62 117
62 334
62 367
62 376
62 557
62 584
62 660
62 702
62 850
62 923
62 964
63 192
63 198
63 273
63 300
63 335
63 461
63 513
63 535
63 557
63 640
63 715
63 746
63 824
63 859
63 906
63 923
64 81
64 133
64 134
64 187
64 354
64 356
64 434
64 483
64 563
64 716
64 817
64 840
64 898
64 916
64 938
64 952
64 955
65 101
65 109
65 116
65 229
65 231
65 266
65 370
65 431
65 459
65 522
65 525
65 538
65 603
65 612
65 685
65 763
65 796
66 255
66 369
66 438
66 572
66 576
66 599
66 687
66 751
66 761
66 820
66 823
66 969
67 281
67 319
67 332
67 386
67 390
67 403
67 413
67 561
67 599
67 639
67 790
67 927
67 986
68 114
68 155
68 261
68 332
68 356
68 419
68 437
68 444
68 485
68 557
68 633
68 634
68 846
69 109
69 154
69 305
69 323
69 435
69 450
69 575
69 732
69 757
69 841
69 923
69 998
70 119
70 200
70 221
70 238
70 441
70 567
70 608
70 625
70 639
70 765
70 849
70 860
70 890
71 146
71 185
71 206
71 316
71 359
71 404
71 410
71 412
71 446
71 449
71 467
71 579
71 614
71 636
71 663
71 681
71 729
71 730
71 763
71 781
71 853
71 914
72 96
72 152
72 179
72 202
72 266
72 299
72 309
72 444
72 466
72 576
72 612
72 637
72 640
72 698
72 731
72 828
72 842
72 949
72 972
72 989
73 123
73 324
73 372
73 446
73 512
73 605
73 684
73 693
73 818
73 845
73 872
74 97
74 145
74 236
74 294
74 327
74 356
74 526
74 596
74 641
74 716
74 731
74 765
74 769
75 110
75 144
75 329
75 375
75 617
75 729
75 745
75 973
75 998
76 121
76 147
76 175
76 228
76 233
76 280
76 285
76 299
76 303
76 311
76 397
76 474
76 491
76 557
76 585
76 707
76 711
76 784
76 788
76 808
76 823
76 824
77 116
77 129
77 181
77 330
77 475
77 528
77 577
77 593
77 840
77 898
77 919
77 970
78 99
78 114
78 198
78 352
78 429
78 522
78 560
78 596
78 620
78 650
78 736
78 799
78 813
78 831
78 911
79 442
79 470
79 655
79 704
79 781
79 791
79 793
79 844
79 852
79 871
80 105
80 108
80 186
80 276
80 536
80 699
80 745
80 759
80 773
80 821
80 858
80 896
80 934
80 955
80 973
81 224
81 354
81 646
81 903
81 938
82 110
82 123
82 164
82 273
82 329
82 502
82 598
82 643
82 659
82 729
82 803
82 848
82 895
82 998
83 137
83 151
83 159
83 256
83 258
83 278
83 333
83 434
83 453
83 541
83 632
83 677
83 690
83 699
83 701
83 727
83 737
83 789
83 858
83 873
83 896
83 948
84 118
84 147
84 201
84 291
84 565
84 566
84 591
84 597
84 617
84 700
84 721
84 797
84 905
84 941
84 951
85 167
85 227
85 348
85 390
85 468
85 475
85 625
85 630
85 634
85 642
86 136
86 161
86 164
86 209
86 255
86 311
86 349
86 378
86 442
86 455
86 471
86 581
86 670
86 680
86 706
86 710
86 765
86 781
86 810
86 814
86 876
86 903
86 911
86 928
86 940
86 953
86 954
86 965
86 991
87 95
87 98
87 220
87 256
87 385
87 532
87 569
87 687
87 756
87 761
87 762
87 934
87 948
88 109
88 133
88 138
88 260
88 409
88 444
88 563
88 599
88 647
88 669
88 825
89 108
89 132
89 237
89 245
89 302
89 444
89 677
89 760
89 861
90 138
90 220
90 231
90 345
90 411
90 471
90 551
90 795
90 894
90 917
91 272
91 300
91 306
91 338
91 461
91 704
91 758
91 912
91 962
92 107
92 177
92 308
92 322
92 334
92 378
92 393
92 433
92 460
92 473
92 585
92 652
92 712
92 911
92 965
93 123
93 217
93 654
93 657
93 671
93 799
93 839
93 843
93 868
94 141
94 152
94 251
94 252
94 285
94 314
94 322
94 350
94 409
94 472
94 549
94 642
94 713
94 797
94 854
94 948
94 983
95 242
95 569
95 583
95 604
95 756
95 762
95 948
96 114
96 116
96 136
96 247
96 289
96 323
96 326
96 342
96 346
96 373
96 396
96 401
96 418
96 487
96 489
96 517
96 540
96 546
96 614
96 659
96 745
96 777
96 822
96 829
96 884
96 891
96 911
96 920
96 935
96 966
96 987
97 233
97 320
97 347
97 408
97 423
97 425
97 796
97 847
97 871
97 923
97 987
98 122
98 126
98 183
98 201
98 255
98 320
98 381
98 442
98 450
98 470
98 569
98 630
98 633
98 680
98 689
98 756
98 762
98 767
98 768
98 809
98 915
98 948
98 956
99 109
99 188
99 236
99 272
99 292
99 362
99 369
99 372
99 470
99 484
99 512
99 513
99 528
99 558
99 573
99 596
99 601
99 637
99 649
99 736
99 738
99 755
99 942
100 133
100 215
100 363
100 373
100 541
100 566
100 587
100 756
100 784
100 824
100 884
100 887
100 946
100 949
101 162
101 171
101 262
101 377
101 556
102 195
102 211
102 214
102 270
102 309
102 350
102 378
102 398
102 399
102 441
102 490
102 888
102 994
103 230
103 255
103 302
103 331
103 344
103 551
103 706
103 717
103 731
103 911
103 939
103 951
104 248
104 279
104 400
104 525
104 526
104 532
104 688
104 783
104 855
104 946
105 177
105 186
105 198
105 232
105 241
105 261
105 357
105 526
105 616
105 772
105 806
105 832
105 885
106 255
106 294
106 319
106 330
106 360
106 415
106 519
106 604
106 834
106 859
106 981
106 986
107 124
107 215
107 255
107 293
107 440
107 527
107 625
107 652
107 732
107 835
107 895
107 950
107 989
108 127
108 317
108 536
108 571
108 603
108 766
108 773
108 799
108 843
108 855
108 973
109 165
109 241
109 307
109 385
109 426
109 428
109 464
109 474
109 496
109 514
109 526
109 539
109 588
109 602
109 663
109 726
109 745
109 774
109 874
109 926
109 927
109 943
109 953
110 111
110 126
110 171
110 236
110 324
110 329
110 370
110 420
110 436
110 454
110 466
110 483
110 502
110 555
110 622
110 729
110 994
110 996
110 998
111 193
111 222
111 318
111 462
111 478
111 515
111 607
111 941
112 134
112 366
112 676
112 720
112 728
112 808
112 817
112 855
112 887
112 893
113 315
113 539
113 652
113 722
113 735
113 864
113 886
114 134
114 163
114 171
114 207
114 365
114 388
114 438
114 443
114 460
114 475
114 478
114 526
114 567
114 668
114 671
114 694
114 741
114 746
114 830
114 838
114 842
114 877
114 903
114 934
114 936
114 949
114 986
115 153
115 174
115 253
115 304
115 346
115 392
115 457
115 529
115 541
115 560
115 607
115 635
115 638
115 641
115 669
115 751
115 794
115 872
115 914
116 437
116 459
116 460
116 519
116 525
116 538
116 571
116 701
116 763
116 913
117 141
117 205
117 220
117 314
117 405
117 431
117 564
117 666
117 670
117 671
117 913
117 986
118 370
118 419
118 565
118 721
118 739
118 809
118 868
118 905
119 141
119 209
119 240
119 251
119 295
119 350
119 372
119 429
119 485
119 511
119 666
119 699
119 705
119 712
119 805
119 821
119 985
120 191
120 197
120 371
120 488
120 492
120 548
120 637
120 835
120 854
120 869
120 921
120 964
121 173
121 227
121 275
121 397
121 515
121 553
121 707
121 711
121 823
121 845
121 879
122 132
122 147
122 179
122 188
122 315
122 335
122 369
122 509
122 545
122 584
122 585
122 589
122 725
122 795
122 893
122 980
123 163
123 255
123 263
123 286
123 305
123 359
123 418
123 478
123 508
123 624
123 677
123 689
123 715
123 866
124 227
124 264
124 501
124 620
124 625
124 630
124 652
124 950
125 217
125 463
125 493
125 654
125 952
125 971
126 170
126 208
126 213
126 251
126 319
126 322
126 350
126 403
126 547
126 618
126 672
126 680
126 699
126 846
126 990
127 143
127 190
127 193
127 230
127 266
127 314
127 329
127 503
127 531
127 554
127 586
127 588
127 598
127 624
127 634
127 643
127 663
127 689
127 770
127 798
127 837
127 855
127 881
127 953
127 998
128 173
128 210
128 249
128 341
128 365
128 393
128 429
128 435
128 454
128 510
128 569
128 578
128 611
128 732
128 758
128 805
128 877
128 911
128 914
128 975
129 167
129 177
129 243
129 258
129 261
129 271
129 331
129 356
129 390
129 602
129 759
129 917
129 944
129 955
130 520
130 595
130 697
130 757
130 815
130 834
130 865
130 928
130 958
130 974
131 330
131 335
131 388
131 506
131 511
131 582
131 590
131 614
131 634
131 684
131 801
131 920
131 951
131 952
132 159
132 179
132 296
132 305
132 335
132 374
132 389
132 443
132 508
132 509
132 545
132 725
132 795
132 848
132 853
132 870
133 148
133 151
133 158
133 235
133 256
133 280
133 283
133 359
133 479
133 553
133 562
133 578
133 585
133 609
133 610
133 689
133 692
133 693
133 722
133 779
133 792
133 799
133 807
133 838
133 868
133 879
133 922
133 949
134 243
134 307
134 366
134 475
134 572
134 607
134 676
134 887
135 222
135 433
135 523
135 715
135 721
135 754
135 771
135 897
135 969
135 998
136 164
136 265
136 315
136 456
136 468
136 484
136 592
136 661
136 792
136 877
136 910
137 151
137 172
137 178
137 217
137 307
137 325
137 416
137 479
137 726
137 737
137 740
137 816
137 836
137 844
137 883
137 921
137 981
138 260
138 277
138 401
138 410
138 441
138 508
138 563
138 572
138 576
138 669
138 825
138 929
138 949
139 149
139 264
139 319
139 321
139 435
139 473
139 537
139 546
139 654
139 875
139 945
140 209
140 225
140 259
140 436
140 456
140 808
140 825
140 842
141 251
141 252
141 285
141 302
141 308
141 322
141 350
141 377
141 577
141 612
141 615
141 620
141 797
141 990
142 334
142 337
142 474
142 580
142 646
142 668
142 701
142 728
142 735
142 806
142 961
143 279
143 349
143 385
143 490
143 503
143 531
143 554
143 598
143 643
143 692
143 772
143 855
143 928
143 952
144 290
144 401
144 431
144 653
144 723
144 799
144 872
144 874
145 234
145 385
145 406
145 429
145 745
145 880
145 890
145 898
145 900
146 185
146 316
146 327
146 410
146 433
146 546
146 558
146 627
146 665
146 754
146 765
146 781
146 853
147 280
147 310
147 311
147 397
147 412
147 464
147 491
147 534
147 546
147 549
147 707
147 711
147 730
147 819
147 823
147 850
147 873
147 916
148 209
148 230
148 324
148 553
148 589
148 610
148 735
148 792
149 202
149 357
149 433
149 616
149 808
149 885
150 167
150 212
150 220
150 227
150 231
150 276
150 345
150 421
150 510
150 530
150 589
150 592
150 647
150 668
150 673
150 692
150 700
150 743
150 803
150 807
150 883
150 886
150 991
150 998
151 256
151 541
151 553
151 610
151 671
151 695
151 734
151 745
151 792
151 807
151 838
151 922
151 946
152 232
152 261
152 299
152 444
152 466
152 576
152 680
153 225
153 258
153 261
153 404
153 455
153 475
153 485
153 511
153 653
153 723
153 728
153 739
153 799
153 874
154 310
154 323
154 370
154 410
154 450
154 540
154 605
154 701
154 732
155 159
155 298
155 300
155 346
155 529
155 738
155 828
155 870
155 908
155 948
155 979
156 261
156 302
156 437
156 614
156 668
157 169
157 286
157 303
157 347
157 660
157 673
157 770
157 909
157 934
157 960
158 229
158 269
158 354
158 358
158 672
158 676
158 712
158 780
158 827
158 893
159 251
159 278
159 285
159 321
159 324
159 339
159 434
159 535
159 677
159 690
160 379
160 492
160 584
160 682
160 811
160 833
160 886
160 914
160 967
161 267
161 304
161 378
161 581
161 646
161 750
161 810
161 814
161 906
161 909
161 923
161 928
161 937
161 953
161 991
162 176
162 372
162 402
162 443
162 448
162 449
162 475
162 525
162 535
162 607
162 659
162 707
162 745
162 764
162 785
162 897
162 992
163 171
163 256
163 271
163 306
163 365
163 478
163 481
163 488
163 601
163 604
163 606
163 656
163 671
163 724
163 741
163 777
163 830
163 839
163 881
163 897
163 976
164 183
164 200
164 265
164 280
164 323
164 343
164 344
164 456
164 468
164 505
164 652
164 655
164 661
164 804
164 877
164 932
164 951
164 987
164 995
165 218
165 229
165 284
165 353
165 428
165 588
165 747
166 373
166 505
166 757
166 762
166 810
166 819
166 909
166 934
166 960
167 206
167 209
167 227
167 348
167 454
167 552
167 630
167 642
168 332
168 352
168 368
168 403
168 422
168 708
168 839
168 863
168 922
168 924
168 946
168 986
169 373
169 392
169 485
169 580
169 697
169 729
169 819
169 934
170 219
170 262
170 297
170 321
170 378
170 379
170 388
170 428
170 535
170 544
170 550
170 553
170 583
170 615
170 645
170 662
170 673
170 735
170 787
170 796
170 798
170 819
170 837
170 854
170 907
170 963
171 201
171 365
171 395
171 432
171 460
171 478
171 572
171 622
171 644
171 671
171 741
171 769
171 830
171 930
172 198
172 221
172 261
172 488
172 522
172 561
172 592
172 650
172 727
172 911
172 926
172 974
173 237
173 245
173 293
173 310
173 367
173 380
173 467
173 529
173 558
173 638
173 733
173 744
173 760
173 861
174 214
174 297
174 392
174 457
174 496
174 512
174 529
174 541
174 560
174 627
174 711
174 751
174 794
174 813
174 872
174 928
174 940
174 942
174 965
174 977
175 220
175 471
175 567
175 604
175 667
175 735
175 749
175 918
175 937
175 977
176 372
176 448
176 532
176 535
176 596
176 654
176 701
176 865
177 202
177 241
177 262
177 327
177 337
177 515
177 772
177 786
177 824
177 982
178 254
178 366
178 476
178 747
178 817
179 239
179 296
179 335
179 346
179 389
179 478
179 509
179 565
179 642
179 667
179 677
179 725
179 795
180 213
180 236
180 300
180 314
180 340
180 347
180 373
180 387
180 415
180 547
180 548
180 808
180 829
180 882
180 938
180 948
181 330
181 339
181 369
181 451
181 475
181 505
181 584
181 593
181 628
181 765
181 803
181 884
181 919
181 924
181 970
181 977
182 199
182 233
182 325
182 326
182 391
182 422
182 443
182 545
182 586
182 598
182 654
182 679
182 694
182 703
182 730
182 750
182 770
182 794
182 883
182 899
182 942
182 988
183 201
183 211
183 328
183 334
183 539
183 584
183 710
183 725
183 790
183 927
183 959
183 969
183 971
184 273
184 279
184 418
184 441
184 623
184 629
184 684
184 710
184 729
184 753
184 940
184 986
185 202
185 320
185 360
185 410
185 579
185 584
185 687
185 781
185 782
185 853
185 863
185 900
185 950
186 207
186 222
186 243
186 286
186 391
186 399
186 417
186 459
186 475
186 481
186 527
186 528
186 534
186 571
186 631
186 667
186 778
186 846
187 315
187 354
187 483
187 517
187 655
187 885
187 916
187 938
187 986
188 209
188 236
188 250
188 292
188 484
188 514
188 546
188 558
188 697
188 827
188 960
189 200
189 414
189 423
189 433
189 477
189 485
189 552
189 604
189 836
189 845
189 907
189 925
189 931
189 957
189 981
190 243
190 307
190 328
190 329
190 352
190 565
190 616
190 662
190 813
190 845
190 951
190 968
190 972
191 209
191 416
191 526
191 637
191 809
191 812
191 869
191 919
191 930
192 261
192 271
192 300
192 337
192 343
192 390
192 461
192 640
192 654
192 676
192 693
192 746
192 906
192 946
193 197
193 200
193 232
193 350
193 415
193 429
193 441
193 458
193 482
193 599
193 610
193 633
193 635
193 658
193 698
193 712
193 743
193 785
193 810
193 854
193 867
193 946
193 948
193 958
194 367
194 376
194 407
194 557
194 605
194 610
194 682
194 702
194 751
194 803
194 923
194 942
195 214
195 257
195 258
195 270
195 285
195 309
195 357
195 398
195 414
195 485
195 631
195 717
195 788
195 946
195 994
195 996
196 277
196 371
196 620
196 630
196 663
196 721
196 754
196 769
196 777
196 846
196 899
196 916
197 267
197 324
197 455
197 671
197 725
197 786
197 821
197 869
197 871
197 991
198 201
198 211
198 305
198 356
198 369
198 370
198 466
198 522
198 558
198 634
198 646
198 650
198 657
198 693
198 712
198 716
198 727
198 777
198 795
198 809
198 831
198 840
198 866
198 895
198 911
198 926
198 974
199 211
199 320
199 325
199 391
199 425
199 443
199 461
199 541
199 567
199 643
199 645
199 803
199 808
199 854
199 858
199 883
199 891
199 899
199 901
199 935
200 228
200 232
200 329
200 408
200 415
200 430
200 441
200 458
200 482
200 525
200 541
200 546
200 557
200 564
200 633
200 635
200 734
200 812
200 815
200 935
200 989
201 209
201 211
201 234
201 306
201 331
201 334
201 530
201 550
201 554
201 571
201 671
201 675
201 709
201 752
201 790
201 799
201 844
201 927
201 969
201 980
201 985
201 989
202 241
202 262
202 263
202 357
202 578
202 595
202 616
202 772
202 786
202 822
202 850
202 885
203 355
203 401
203 402
203 422
203 584
203 644
203 768
203 852
203 895
204 254
204 374
204 418
204 433
204 448
204 521
204 646
204 786
204 797
204 935
204 984
205 300
205 374
205 403
205 416
205 562
205 584
205 697
205 811
205 844
205 914
206 403
206 605
206 661
206 748
206 838
206 848
206 937
206 942
206 969
206 994
207 233
207 286
207 528
207 534
207 631
207 726
207 826
207 850
207 878
207 938
208 251
208 298
208 364
208 503
208 529
208 549
208 722
208 751
208 779
208 971
208 990
209 216
209 225
209 232
209 264
209 315
209 323
209 404
209 429
209 531
209 613
209 639
209 669
209 726
209 842
209 863
209 871
209 880
209 903
209 937
209 948
210 433
210 478
210 487
210 578
210 611
210 668
210 777
210 834
210 911
211 243
211 294
211 299
211 334
211 583
211 603
211 606
211 675
211 676
211 692
211 709
211 752
211 790
211 959
211 969
212 221
212 238
212 329
212 389
212 412
212 479
212 501
212 528
212 567
212 640
212 783
212 832
212 849
212 890
212 948
213 305
213 314
213 340
213 499
213 548
213 640
213 684
213 881
213 984
214 220
214 257
214 270
214 271
214 309
214 325
214 332
214 398
214 421
214 490
214 559
214 563
214 571
214 572
214 594
214 600
214 603
214 612
214 630
214 795
214 830
214 840
214 888
214 924
214 937
214 969
214 994
215 265
215 313
215 335
215 363
215 374
215 382
215 403
215 471
215 486
215 539
215 566
215 671
215 727
215 769
215 784
215 808
215 818
215 910
215 937
215 946
215 948
215 949
216 225
216 248
216 337
216 371
216 380
216 393
216 404
216 600
216 613
216 677
216 903
217 245
217 356
217 465
217 473
217 502
217 654
217 657
217 839
217 843
217 844
217 856
217 868
217 897
218 227
218 348
218 519
218 630
218 642
218 667
218 698
218 751
218 798
218 913
219 238
219 299
219 371
219 540
219 543
219 734
219 754
220 223
220 292
220 359
220 461
220 484
220 495
220 564
220 624
220 632
220 666
220 670
220 682
220 718
220 738
220 743
220 752
220 787
220 790
220 849
220 896
220 907
220 913
220 978
220 986
221 274
221 411
221 437
221 483
221 546
221 567
221 600
221 672
221 747
221 783
221 790
221 832
221 849
221 890
222 286
222 398
222 399
222 527
222 528
222 534
222 631
222 769
222 874
222 990
223 230
223 464
223 488
223 491
223 612
223 619
223 629
223 634
223 638
223 715
223 724
223 755
223 932
223 967
223 994
224 317
224 354
224 483
224 522
224 646
224 724
224 778
224 938
224 940
224 966
225 334
225 404
225 436
225 613
225 790
225 842
225 856
225 902
225 903
225 928
226 369
226 442
226 462
226 515
226 547
226 594
226 607
226 629
226 721
226 799
226 802
226 941
227 228
227 348
227 407
227 541
227 597
227 630
227 634
227 642
227 669
227 725
227 736
227 771
227 818
228 348
228 390
228 630
228 634
228 679
228 696
228 698
229 348
229 358
229 401
229 413
229 493
229 524
229 567
229 632
229 655
229 672
229 705
229 718
229 728
229 780
229 810
229 826
229 827
229 864
229 893
229 996
229 997
230 243
230 488
230 724
230 755
230 852
230 875
230 911
230 950
230 967
230 978
231 285
231 439
231 587
231 735
231 785
231 889
231 913
232 397
232 415
232 439
232 441
232 482
232 633
232 751
232 797
232 963
233 320
233 343
233 347
233 408
233 423
233 425
233 602
233 679
233 747
233 806
233 847
233 871
233 880
233 963
234 327
234 409
234 448
234 590
234 850
234 866
234 898
234 984
235 241
235 286
235 437
235 446
235 512
235 724
235 818
235 910
235 981
236 270
236 292
236 373
236 417
236 420
236 469
236 484
236 523
236 558
236 578
236 594
236 601
236 640
236 714
236 736
236 743
236 942
236 962
237 257
237 307
237 352
237 380
237 485
237 861
237 877
237 979
238 267
238 457
238 521
238 567
238 716
238 832
238 849
238 854
238 884
238 900
238 999
239 244
239 285
239 291
239 475
239 523
239 550
239 555
239 573
239 606
239 609
239 627
239 705
239 767
239 904
239 928
240 261
240 267
240 291
240 320
240 397
240 441
240 609
240 627
240 727
240 767
241 262
241 368
241 429
241 557
241 790
241 836
241 858
241 885
241 988
242 296
242 402
242 413
242 630
242 644
242 696
242 852
242 895
243 271
243 291
243 413
243 439
243 444
243 495
243 529
243 544
243 596
243 602
243 759
243 776
243 790
243 826
243 852
243 944
243 946
243 955
244 291
244 359
244 519
244 609
244 854
244 871
244 904
245 356
245 373
245 380
245 393
245 467
245 696
245 730
245 733
245 760
245 843
245 861
245 948
246 373
246 582
246 587
246 630
246 662
246 665
246 951
246 966
246 968
247 260
247 272
247 352
247 567
247 708
247 776
247 839
247 863
248 432
248 507
248 526
248 532
248 606
248 679
248 726
248 751
248 779
248 841
248 932
249 387
249 416
249 677
249 805
249 883
250 283
250 421
250 504
250 518
250 577
250 594
250 640
250 862
250 984
251 322
251 350
251 418
251 499
251 615
251 625
251 699
251 705
251 776
251 840
251 846
251 990
252 345
252 350
252 394
252 446
252 526
252 618
252 779
252 877
252 973
252 981
253 327
253 444
253 448
253 449
253 516
253 535
253 555
253 747
253 819
254 293
254 304
254 335
254 366
254 374
254 445
254 462
254 504
254 521
254 528
254 557
254 595
254 670
254 671
254 695
254 760
254 775
254 786
254 797
254 802
254 808
254 834
254 855
254 892
254 896
254 935
254 984
255 263
255 264
255 274
255 305
255 412
255 490
255 542
255 567
255 584
255 624
255 689
255 712
255 791
255 797
255 804
255 814
255 866
255 907
255 908
255 968
255 993
256 257
256 283
256 285
256 336
256 444
256 467
256 640
256 662
256 792
257 270
257 278
257 309
257 475
257 712
257 888
257 994
258 646
258 723
258 739
258 786
258 799
258 825
258 874
259 268
259 269
259 297
259 356
259 386
259 476
259 486
259 509
259 540
259 542
259 554
259 568
259 687
259 713
259 750
259 765
259 783
259 786
259 844
259 878
259 954
259 979
260 277
260 371
260 469
260 501
260 508
260 535
260 563
260 634
260 647
260 669
260 709
260 718
260 790
260 825
260 828
260 835
260 917
260 929
260 941
260 952
261 278
261 291
261 383
261 437
261 453
261 485
261 681
261 703
261 723
261 740
261 752
261 785
261 846
261 935
261 983
262 266
262 352
262 512
262 513
262 616
263 285
263 325
263 351
263 436
263 498
263 689
263 866
264 346
264 364
264 393
264 435
264 489
264 546
264 597
264 738
264 764
264 794
264 816
264 844
264 856
264 875
264 945
264 981
265 402
265 456
265 468
265 490
265 661
265 688
265 725
265 865
265 877
265 932
265 987
266 299
266 444
266 540
266 555
266 576
266 680
266 865
266 989
267 325
267 329
267 356
267 375
267 388
267 412
267 413
267 453
267 456
267 495
267 568
267 576
267 664
267 666
267 711
267 713
267 757
267 781
267 814
267 824
267 831
267 886
267 902
267 910
267 922
267 996
268 269
268 299
268 386
268 453
268 476
268 540
268 580
268 687
268 732
268 750
268 972
268 973
269 401
269 485
269 507
269 540
269 568
269 722
269 750
269 777
269 878
270 274
270 309
270 381
270 398
270 471
270 476
270 561
270 571
270 776
270 782
270 847
270 850
270 888
270 927
270 994
271 602
271 712
271 758
271 759
271 955
272 285
272 306
272 333
272 482
272 486
272 558
272 596
272 620
272 682
272 797
272 813
272 846
272 894
272 962
273 279
273 373
273 429
273 483
273 570
273 576
273 623
273 660
273 673
273 710
273 719
273 770
273 829
273 850
273 861
273 863
273 911
273 920
273 940
273 960
273 970
274 294
274 307
274 532
274 624
274 638
274 689
274 851
275 625
275 652
275 757
275 826
275 878
275 902
275 950
276 312
276 426
276 523
276 593
276 693
276 726
276 732
276 789
276 897
276 977
277 354
277 398
277 450
277 501
277 508
277 522
277 550
277 557
277 563
277 669
277 751
277 765
277 825
277 855
277 929
278 434
278 653
278 677
278 680
278 690
278 859
279 504
279 570
279 595
279 623
279 659
279 710
279 793
279 940
280 311
280 327
280 350
280 397
280 491
280 523
280 680
280 707
280 788
280 823
281 363
281 423
281 599
281 639
281 648
281 765
281 939
281 956
281 965
282 346
282 367
282 407
282 446
282 557
282 655
282 660
282 672
282 695
282 702
282 716
282 791
282 923
282 942
283 319
283 336
283 553
283 632
283 697
283 792
283 803
283 865
283 879
283 922
284 333
284 338
284 390
284 392
284 465
284 569
284 792
284 806
284 912
284 962
285 309
285 377
285 439
285 574
285 587
285 589
285 601
285 628
285 636
285 691
285 781
285 785
285 839
285 901
285 920
285 994
286 352
286 399
286 431
286 527
286 528
286 534
286 631
286 774
286 778
286 798
286 839
286 898
286 900
286 962
286 979
287 315
287 369
287 761
287 820
287 833
287 884
287 983
288 300
288 331
288 346
288 432
288 558
288 567
288 662
288 828
288 927
288 947
289 346
289 396
289 418
289 520
289 590
289 712
289 720
289 725
289 745
289 786
289 797
289 822
289 829
289 884
289 887
289 890
290 315
290 539
290 683
290 697
290 722
290 952
290 963
291 491
291 494
291 555
291 591
291 627
291 767
291 772
291 782
291 904
292 448
292 484
292 487
292 490
292 518
292 546
292 558
292 601
292 714
292 736
292 801
292 909
292 942
293 327
293 497
293 577
293 790
293 806
293 809
294 319
294 445
294 614
294 697
294 700
294 774
294 803
294 859
294 912
294 924
294 981
295 322
295 350
295 369
295 387
295 409
295 448
295 746
295 779
295 967
295 990
296 335
296 357
296 389
296 424
296 509
296 545
296 616
296 725
296 888
297 321
297 322
297 339
297 361
297 379
297 402
297 614
297 792
297 798
297 854
298 315
298 322
298 350
298 424
298 520
298 615
298 656
298 976
299 320
299 391
299 444
299 466
299 501
299 542
299 566
299 568
299 576
299 645
299 680
299 756
299 777
299 823
299 989
300 326
300 432
300 474
300 518
300 550
300 580
300 617
300 672
300 735
300 754
300 828
300 849
300 870
300 895
300 900
300 908
300 947
300 958
300 999
301 390
301 404
301 440
301 464
301 482
301 505
301 509
301 517
301 529
301 619
301 762
301 769
301 812
301 911
301 999
302 319
302 344
302 352
302 405
302 551
302 573
302 579
302 608
302 677
302 706
302 717
302 754
302 803
302 829
302 921
302 926
302 933
303 307
303 416
303 440
303 479
303 591
303 628
303 726
303 740
303 816
303 855
303 969
304 310
304 340
304 352
304 445
304 464
304 659
304 786
304 797
304 901
304 935
304 973
304 984
305 335
305 624
305 675
305 689
305 823
305 866
305 921
306 338
306 704
306 708
306 732
306 793
306 797
306 827
306 884
306 962
307 416
307 479
307 585
307 625
307 631
307 632
307 636
307 674
307 726
307 737
307 740
307 788
307 816
307 921
308 398
308 411
308 451
308 489
308 490
308 508
308 514
308 533
308 658
308 674
308 867
308 881
308 900
308 992
309 326
309 395
309 421
309 501
309 571
309 630
309 690
309 745
309 760
309 802
309 824
309 852
309 888
309 994
310 323
310 437
310 450
310 480
310 481
310 536
310 605
310 635
310 714
310 732
310 858
310 882
310 931
310 935
310 951
311 403
311 412
311 472
311 519
311 711
311 722
311 748
312 426
312 523
312 586
312 606
312 635
312 806
312 826
312 948
312 988
313 363
313 382
313 408
313 429
313 484
313 677
313 860
313 946
313 949
314 340
314 387
314 499
314 518
314 546
314 547
314 548
314 744
314 759
314 776
314 988
315 498
315 539
315 643
315 647
315 683
315 694
315 722
315 749
315 856
315 915
315 930
315 993
316 356
316 410
316 476
316 516
316 579
316 902
317 536
317 608
317 648
317 681
317 698
317 719
317 766
317 773
317 802
317 946
317 973
317 978
318 327
318 424
318 457
318 590
318 751
318 824
318 850
318 899
318 948
319 341
319 360
319 428
319 442
319 487
319 519
319 545
319 569
319 591
319 614
319 652
319 719
319 784
319 859
319 872
319 889
319 981
320 347
320 408
320 423
320 425
320 631
320 729
320 732
320 747
320 753
320 835
320 847
320 871
320 914
320 917
320 935
321 346
321 379
321 427
321 475
321 477
321 497
321 544
321 550
321 555
321 579
321 583
321 649
321 668
321 798
321 810
321 837
321 842
321 854
321 895
321 923
321 927
322 327
322 350
322 360
322 394
322 398
322 572
322 599
322 659
322 699
322 779
322 832
322 881
322 914
322 990
323 450
323 460
323 475
323 480
323 525
323 540
323 605
323 610
323 732
323 805
323 812
323 827
323 882
323 945
324 437
324 444
324 578
324 811
324 828
324 998
325 391
325 443
325 514
325 645
325 701
325 750
325 756
325 883
326 401
326 432
326 452
326 474
326 736
326 828
326 908
326 947
327 331
327 363
327 426
327 564
327 567
327 590
327 593
327 633
327 727
327 811
327 829
327 850
327 879
327 894
327 898
327 899
327 937
327 975
327 988
328 446
328 555
328 557
328 609
328 613
328 647
328 662
328 665
328 726
328 813
328 918
328 951
328 966
328 968
328 972
328 986
329 376
329 405
329 436
329 454
329 502
329 639
329 724
329 729
329 890
329 926
329 943
329 949
329 951
329 998
330 418
330 475
330 505
330 525
330 593
330 595
330 625
330 824
330 855
330 884
330 899
330 919
330 970
331 575
331 672
331 741
331 863
331 955
332 351
332 396
332 561
332 599
332 639
332 648
332 790
332 797
332 840
332 885
332 927
332 956
333 338
333 587
333 777
333 814
333 962
333 969
333 995
334 510
334 664
334 675
334 681
334 709
334 752
334 790
334 844
334 916
334 959
334 969
335 350
335 383
335 389
335 509
335 545
335 570
335 630
335 725
335 795
335 877
335 882
335 931
335 932
336 373
336 445
336 553
336 581
336 610
336 668
336 792
336 807
336 851
336 871
336 885
337 362
337 420
337 433
337 490
337 541
337 575
337 683
337 686
337 768
337 824
337 963
337 988
338 620
338 871
338 897
338 912
338 949
338 955
339 382
339 384
339 565
339 630
339 700
339 721
339 905
339 935
339 994
340 431
340 472
340 499
340 547
340 548
340 666
340 834
340 890
340 955
341 471
341 527
341 572
341 581
341 640
341 812
341 923
341 975
342 354
342 396
342 418
342 466
342 613
342 721
342 745
342 820
342 829
342 848
342 884
342 962
343 456
343 468
343 932
343 987
344 513
344 551
344 595
344 706
344 711
344 717
345 371
345 388
345 485
345 510
345 530
345 539
345 581
345 592
345 595
345 629
345 647
345 651
345 685
345 692
345 720
345 739
345 743
345 767
345 803
345 914
345 920
345 968
345 991
346 396
346 418
346 447
346 611
346 624
346 636
346 639
346 680
346 745
346 763
346 766
346 822
346 829
346 884
346 888
346 941
347 423
347 835
347 850
347 871
347 952
348 357
348 630
348 642
348 701
348 892
348 902
348 946
349 581
349 614
349 845
349 876
349 928
349 953
349 966
350 375
350 394
350 409
350 457
350 549
350 558
350 560
350 615
350 618
350 643
350 670
350 685
350 699
350 705
350 714
350 719
350 754
350 885
350 960
350 961
350 990
351 461
351 506
351 513
351 599
351 603
351 640
351 676
351 746
351 782
351 850
351 906
351 920
352 428
352 441
352 468
352 481
352 483
352 511
352 554
352 564
352 584
352 660
352 682
352 708
352 715
352 719
352 794
352 839
352 863
352 924
352 954
352 968
353 357
353 424
353 497
353 621
353 640
353 660
353 671
353 776
353 806
353 973
353 995
354 405
354 406
354 483
354 534
354 595
354 646
354 688
354 724
354 732
354 767
354 854
354 916
354 935
354 938
354 965
354 972
355 418
355 432
355 452
355 644
355 696
355 722
355 874
356 400
356 500
356 503
356 514
356 523
356 549
356 556
356 579
356 596
356 611
356 641
356 663
356 685
356 731
356 744
356 765
356 769
356 820
356 980
357 616
357 624
357 664
357 860
357 885
357 951
358 395
358 672
358 743
358 768
358 769
358 780
358 812
358 855
358 893
359 410
359 430
359 579
360 433
360 487
360 505
360 519
360 591
360 677
360 859
360 981
361 388
361 582
361 670
361 725
361 800
361 839
361 888
361 923
361 943
361 952
361 963
362 433
362 575
362 758
362 768
362 816
362 819
362 824
362 848
362 963
362 985
362 988
363 382
363 515
363 616
363 697
363 701
363 704
363 784
363 826
363 854
363 946
363 949
364 435
364 489
364 546
364 597
364 734
364 797
364 831
364 847
364 905
365 478
365 565
365 596
365 671
365 708
365 741
365 830
366 676
366 710
366 865
366 997
367 407
367 431
367 557
367 660
367 702
367 703
367 722
367 741
367 784
367 923
367 980
368 455
368 644
368 696
368 953
369 374
369 438
369 480
369 524
369 547
369 557
369 596
369 629
369 638
369 646
369 680
369 725
369 736
369 761
369 785
369 788
369 795
369 820
369 833
369 892
369 976
370 378
370 459
370 487
370 525
370 709
370 763
370 796
370 825
370 839
371 449
371 486
371 533
371 541
371 705
371 734
371 754
371 774
371 777
371 946
371 957
372 448
372 503
372 516
372 535
372 536
372 659
372 721
372 737
372 754
372 935
373 423
373 721
373 770
373 819
373 909
373 934
373 998
374 445
374 521
374 786
374 797
374 901
374 935
374 984
375 388
375 410
375 486
375 495
375 886
376 407
376 458
376 471
376 557
376 631
376 690
376 702
376 923
376 960
377 386
377 390
377 595
377 656
377 709
377 806
377 856
377 889
377 925
378 581
378 652
378 745
378 928
378 937
378 952
378 953
379 550
379 583
379 625
379 633
379 660
379 798
379 816
379 817
379 821
379 837
379 854
379 937
379 985
380 467
380 479
380 490
380 587
380 611
380 662
380 730
380 740
380 760
380 854
380 861
380 867
381 444
381 754
381 762
381 769
381 935
381 948
381 952
382 450
382 478
382 566
382 693
382 946
382 949
383 437
383 484
383 485
383 593
383 620
383 703
383 944
383 983
384 402
384 403
384 617
384 701
384 721
384 905
385 429
385 438
385 758
385 773
385 858
385 900
385 977
386 496
386 540
386 558
386 568
386 654
386 761
386 839
387 477
387 491
387 499
387 514
387 547
387 548
387 827
387 844
387 922
387 955
387 959
388 396
388 506
388 532
388 582
388 641
388 672
388 677
388 696
388 716
388 760
388 769
388 800
388 801
388 910
388 911
388 918
388 940
388 952
388 964
388 978
389 509
389 545
389 582
389 725
389 735
389 762
389 795
389 802
389 977
390 440
390 446
390 464
390 517
390 543
390 619
390 642
390 696
390 701
390 716
390 780
390 812
390 827
390 836
390 874
390 912
390 913
390 921
390 971
390 976
390 977
390 978
390 999
391 422
391 443
391 573
391 696
391 883
391 989
391 991
392 541
392 548
392 560
392 751
392 794
392 884
393 460
393 538
393 603
393 649
393 712
393 965
393 984
394 441
394 479
394 562
394 705
394 718
394 774
394 956
395 490
395 555
395 574
395 652
395 723
395 799
395 874
396 418
396 666
396 745
396 762
396 789
396 822
396 829
396 884
397 491
397 683
397 707
397 711
397 823
397 831
397 902
397 933
397 994
398 483
398 504
398 615
398 689
398 790
399 460
399 471
399 473
399 500
400 524
400 526
400 532
400 550
400 616
400 688
400 741
400 754
400 763
400 817
400 885
400 929
401 653
401 723
401 817
401 874
402 430
402 632
402 696
402 852
402 862
402 895
403 418
403 446
403 463
403 515
403 537
403 551
403 557
403 603
403 607
403 674
403 695
403 748
403 793
403 838
403 848
403 883
403 900
403 937
403 952
403 963
404 594
404 613
404 690
404 780
404 783
404 820
404 835
404 842
404 976
405 603
405 711
405 773
405 973
406 512
406 572
406 647
406 703
406 786
406 841
407 515
407 557
407 639
407 660
407 702
407 870
407 923
407 999
408 423
408 484
408 550
408 571
408 629
408 663
408 708
408 847
408 906
408 913
408 936
408 966
409 618
409 676
409 699
409 821
409 902
409 953
410 414
410 520
410 630
410 677
410 690
410 741
410 747
410 781
410 824
410 853
410 940
411 457
411 469
411 490
411 533
411 658
411 674
411 753
411 867
411 918
411 921
412 413
412 490
412 495
412 498
412 573
412 664
412 713
412 886
412 910
412 960
412 996
413 495
413 583
413 762
413 786
413 801
413 947
413 964
414 421
414 427
414 500
414 624
414 803
414 844
415 441
415 458
415 537
415 554
415 577
415 635
415 760
415 949
416 448
416 479
416 535
416 538
416 631
416 726
416 737
416 765
416 816
416 921
417 451
417 505
417 570
417 573
417 693
417 860
417 902
417 951
418 509
418 666
418 710
418 745
418 822
418 829
418 884
418 916
418 938
419 439
419 595
419 617
419 620
419 700
419 721
419 905
419 911
420 433
420 496
420 584
420 686
420 694
420 824
420 963
421 437
421 504
421 532
421 542
421 569
421 598
421 759
421 807
421 862
422 443
422 481
422 557
422 573
422 603
422 645
422 883
423 436
423 557
423 619
423 658
423 747
423 760
423 847
423 871
423 917
424 452
424 524
424 534
424 541
424 771
424 776
424 857
425 428
425 533
425 652
425 747
425 847
425 871
425 938
426 453
426 523
426 776
426 855
426 897
426 903
426 961
427 512
427 589
427 708
427 721
427 791
427 793
427 844
428 514
428 565
428 588
428 663
428 771
428 941
428 943
428 953
428 963
429 430
429 474
429 531
429 697
429 741
429 836
429 858
429 873
429 880
429 900
429 948
430 497
430 644
430 852
430 895
430 972
431 487
431 538
431 796
431 820
431 846
432 787
432 828
432 876
432 877
432 908
433 575
433 606
433 621
433 686
433 692
433 768
433 771
433 824
433 874
433 930
433 950
433 963
433 973
433 985
433 988
434 546
434 570
434 632
434 634
434 677
434 690
434 701
434 753
434 756
434 803
434 809
434 880
435 546
435 559
435 589
435 597
435 602
435 691
435 764
435 765
436 548
436 576
436 622
436 675
436 850
436 962
436 998
437 439
437 485
437 532
437 595
437 681
437 703
437 711
437 787
437 846
437 902
437 983
438 537
438 541
438 644
438 720
438 761
438 788
438 820
438 833
438 976
439 457
439 505
439 570
439 574
439 587
439 628
439 691
439 697
439 711
439 785
439 870
439 901
439 952
440 464
440 507
440 512
440 517
440 543
440 619
440 695
440 697
440 741
440 812
440 978
440 999
441 458
441 482
441 517
441 518
441 542
441 633
441 635
441 653
441 704
441 765
441 860
441 975
442 569
442 664
442 683
442 709
442 712
442 756
442 762
442 767
442 773
442 787
442 911
442 948
443 489
443 495
443 510
443 560
443 575
443 583
443 590
443 593
443 595
443 645
443 684
443 700
443 710
443 791
443 883
443 884
444 466
444 576
444 614
444 630
444 671
444 680
444 686
444 713
444 898
444 941
444 989
445 479
445 557
445 754
445 775
445 786
445 797
445 803
445 896
445 935
445 963
446 512
446 572
446 592
446 818
446 838
447 505
447 512
447 518
447 742
447 749
447 917
447 918
447 977
447 982
448 449
448 516
448 535
448 596
448 648
448 659
448 710
448 770
448 791
448 833
449 450
449 552
449 589
449 644
449 651
449 830
449 921
450 480
450 552
450 586
450 605
450 637
450 661
450 697
450 732
450 796
450 824
450 837
450 882
450 883
450 938
450 967
450 969
451 485
451 535
451 573
451 649
451 693
451 707
451 720
451 771
451 790
451 854
451 902
451 936
452 775
452 776
452 854
452 888
453 465
453 523
453 600
453 677
453 690
453 876
453 889
453 948
454 629
454 641
454 658
454 669
454 729
454 863
454 998
455 477
455 604
455 845
455 884
455 907
455 925
455 931
455 946
456 468
456 661
456 815
456 829
456 877
456 985
457 529
457 541
457 560
457 644
457 751
457 794
457 810
457 872
457 935
457 994
458 482
458 486
458 612
458 633
458 697
458 835
458 863
458 893
458 928
459 525
459 543
459 727
459 763
459 869
459 975
460 590
460 594
460 712
460 965
461 538
461 539
461 640
461 686
461 746
461 902
461 906
462 512
462 515
462 595
462 607
462 629
462 744
462 802
462 914
462 967
462 998
463 488
463 570
463 612
463 619
463 715
463 724
463 755
464 517
464 543
464 619
464 877
464 974
464 978
464 999
465 654
465 662
465 678
465 843
466 611
466 892
466 989
467 492
467 622
467 705
467 730
467 733
467 760
467 800
467 861
467 996
468 685
468 764
468 793
468 825
468 868
468 877
468 987
469 490
469 533
469 541
469 571
469 697
469 724
469 992
470 589
470 660
470 791
470 793
470 823
470 882
470 991
471 526
471 742
471 749
471 756
471 918
471 939
471 977
471 982
472 809
472 856
472 889
473 585
473 594
473 712
473 773
473 839
473 889
473 965
473 973
474 534
474 559
474 650
474 701
474 979
475 505
475 533
475 577
475 593
475 596
475 599
475 671
475 737
475 788
475 793
475 817
475 840
475 858
475 919
475 923
475 952
475 970
476 540
476 687
476 712
476 750
476 969
477 604
477 845
477 861
477 863
477 904
477 907
477 925
477 977
478 574
478 587
478 671
478 741
478 744
478 830
478 967
478 979
478 991
479 595
479 726
479 740
479 792
479 816
479 885
479 921
480 697
480 701
480 702
480 732
480 753
480 790
481 512
481 557
481 839
481 863
481 924
482 599
482 633
482 863
483 485
483 646
483 711
483 733
483 738
483 916
483 938
483 986
484 558
484 578
484 601
484 694
484 714
484 736
484 839
484 922
484 942
484 946
485 487
485 509
485 523
485 626
485 681
485 703
485 730
485 846
485 911
485 923
485 925
485 958
485 983
486 620
486 708
486 834
486 912
486 931
486 962
487 525
487 538
487 646
487 763
487 796
487 814
487 899
487 969
488 542
488 601
488 644
488 675
488 715
488 724
488 967
489 546
489 593
489 597
489 662
489 700
489 722
489 764
489 875
489 917
490 674
490 705
490 992
491 611
491 711
491 823
491 930
492 515
492 548
492 672
492 964
493 504
493 672
493 729
493 780
493 857
493 864
493 893
493 936
493 985
493 997
494 609
494 627
494 651
494 745
494 767
494 988
495 665
495 666
495 713
495 827
495 864
495 886
495 891
495 901
495 910
495 996
496 514
496 582
496 588
496 663
496 826
497 621
497 622
497 776
497 977
497 983
498 520
498 539
498 694
498 722
499 576
499 741
499 797
499 798
499 900
499 977
499 998
500 520
500 596
500 641
500 683
500 685
500 731
500 765
500 769
500 807
500 902
500 977
501 508
501 557
501 825
501 986
502 622
502 661
502 762
502 834
502 998
502 999
503 506
503 529
503 531
503 554
503 598
503 855
504 518
504 648
504 692
504 784
504 862
504 900
504 918
505 593
505 652
505 840
505 919
505 952
505 970
506 530
506 582
506 677
506 716
506 783
506 797
506 800
506 952
506 963
507 526
507 532
507 545
507 606
507 670
507 679
507 680
507 711
507 803
507 816
507 841
507 973
508 545
508 554
508 651
508 929
509 525
509 545
509 567
509 725
509 793
509 795
509 986
510 647
510 672
510 692
510 701
510 803
510 829
510 937
510 967
511 593
511 708
511 839
511 852
511 863
512 529
512 684
512 818
513 530
513 604
513 640
513 741
513 746
513 782
513 808
513 920
513 980
514 588
514 609
514 730
514 906
514 943
515 607
515 629
515 678
515 697
515 744
515 802
515 941
516 535
516 567
516 601
516 683
516 740
516 899
517 619
517 640
517 840
517 978
517 988
517 999
518 597
518 655
518 832
518 839
518 862
519 591
519 614
519 713
519 724
519 843
519 847
519 859
519 981
520 527
520 556
520 570
520 595
520 596
520 609
520 614
520 630
520 697
520 747
520 753
520 757
520 760
520 809
520 815
520 834
520 855
520 865
520 880
520 958
520 967
521 737
521 775
521 786
521 797
521 799
521 828
521 839
521 935
521 984
522 570
522 623
522 911
522 926
522 974
522 994
523 525
523 586
523 592
523 644
523 771
523 789
523 897
523 986
524 527
524 621
524 643
524 690
524 734
524 746
524 776
524 938
524 954
524 995
525 538
525 590
525 628
525 763
525 796
525 822
526 532
526 595
526 606
526 631
526 632
526 679
526 688
526 693
526 782
526 809
526 827
526 841
526 853
526 871
526 884
526 888
526 980
526 995
527 534
527 631
527 778
527 956
528 534
528 631
528 712
528 901
529 540
529 541
529 560
529 701
529 706
529 724
529 751
529 753
529 794
529 872
530 647
530 692
530 732
530 758
530 786
530 803
530 830
530 840
530 991
531 554
531 598
531 599
531 796
531 855
532 606
532 679
532 937
533 541
533 650
533 658
534 580
534 929
534 950
534 993
535 659
535 800
535 803
535 883
536 569
536 603
536 682
536 766
536 773
536 821
536 953
536 973
537 687
537 703
537 748
537 785
537 848
537 887
537 916
537 937
538 667
538 725
538 796
538 818
539 540
539 645
539 683
539 694
539 722
539 816
539 976
540 568
540 573
540 687
540 750
541 560
541 603
541 719
541 724
541 735
541 751
541 794
541 806
541 851
541 857
541 872
541 977
542 544
542 731
542 862
542 919
542 943
543 790
543 978
543 999
544 550
544 700
544 706
544 837
544 854
544 935
545 613
545 713
545 725
545 795
545 842
545 855
545 963
545 980
546 588
546 597
546 610
546 662
546 721
546 764
546 803
546 810
546 818
546 846
546 875
546 919
546 924
546 945
546 969
547 548
547 569
547 934
547 999
548 739
548 809
548 863
548 953
549 570
549 615
549 652
549 743
549 801
550 583
550 694
550 837
550 854
550 883
550 931
551 666
551 706
551 804
551 894
551 939
552 589
552 636
552 651
552 722
552 845
552 925
552 931
552 954
553 591
553 598
553 686
553 743
553 764
553 784
553 792
553 807
553 879
553 906
553 993
554 598
554 607
554 611
554 643
554 855
554 892
554 966
555 609
555 627
555 666
555 767
555 904
556 557
556 595
556 697
556 815
556 865
556 877
556 923
556 945
556 964
557 566
557 573
557 640
557 655
557 660
557 702
557 860
557 916
557 923
557 945
558 559
558 601
558 714
558 725
558 810
558 904
558 926
558 942
559 668
559 701
559 961
559 985
560 630
560 751
560 794
560 872
561 599
561 639
561 675
561 855
561 891
561 927
561 956
561 962
562 584
562 682
562 704
562 772
562 785
562 811
562 829
562 868
562 914
563 606
563 669
563 732
563 816
563 851
563 869
564 653
564 666
564 670
564 703
564 718
564 732
564 738
564 787
564 829
564 913
564 914
564 977
564 986
564 990
565 575
565 625
565 695
565 700
565 721
565 905
565 933
565 946
566 946
566 949
567 570
567 584
567 587
567 600
567 623
567 676
567 681
567 694
567 704
567 762
567 783
567 832
567 849
567 890
567 900
568 591
568 642
568 687
568 723
568 965
569 599
569 703
569 756
569 762
569 873
569 891
569 948
570 623
570 710
570 719
570 777
570 940
570 950
571 721
571 751
571 856
571 994
572 684
572 748
572 818
572 869
573 576
573 584
573 617
573 636
573 649
573 686
573 693
573 699
573 700
573 720
573 777
573 844
573 860
573 878
573 893
573 902
573 919
573 936
573 963
574 587
574 785
574 901
575 612
575 614
575 686
575 736
575 768
575 815
575 824
575 868
575 963
575 985
575 988
576 751
576 989
577 797
577 919
577 970
578 805
578 911
578 926
578 939
579 625
579 781
579 790
579 831
579 853
579 918
579 923
579 932
579 994
580 605
580 770
580 915
580 934
580 960
581 584
581 597
581 619
581 630
581 693
581 714
581 752
581 810
581 876
581 880
581 928
581 953
581 994
581 996
582 716
582 759
582 793
582 800
582 801
582 824
582 843
582 952
582 985
583 650
583 798
583 854
583 963
584 682
584 744
584 811
584 876
584 914
585 594
585 656
585 712
585 790
585 829
585 860
585 922
586 677
586 815
586 822
586 897
587 636
587 691
587 785
587 837
587 848
588 863
588 945
588 973
589 704
589 724
589 793
589 844
589 877
590 650
590 762
590 820
590 850
590 878
590 894
590 898
590 899
590 903
591 672
591 752
591 871
591 981
592 692
592 743
592 803
592 844
592 991
593 684
593 739
593 769
593 840
593 919
593 988
594 689
594 712
594 911
594 913
595 640
595 692
595 697
595 757
595 815
595 830
595 834
595 865
595 958
595 969
596 610
596 641
596 665
596 685
596 731
596 765
596 769
596 819
596 980
597 792
597 870
597 875
597 945
598 668
598 855
599 606
599 639
599 648
599 744
599 746
599 782
599 811
599 817
599 840
599 873
599 891
599 927
599 956
600 726
600 783
600 832
600 849
600 874
600 890
600 990
601 681
601 714
601 736
601 745
601 838
601 863
601 874
601 942
602 955
603 766
603 773
603 821
603 963
603 973
603 981
604 626
604 652
604 697
604 845
604 907
604 925
604 931
605 732
605 830
605 937
605 984
606 660
606 681
606 841
606 935
607 629
607 744
607 802
607 941
608 706
608 717
608 767
608 804
608 820
608 884
609 610
609 721
609 767
609 900
609 962
610 724
610 792
610 879
610 922
610 974
611 709
611 741
612 638
612 642
612 714
612 715
612 724
612 755
612 853
612 967
613 671
613 803
613 842
613 903
614 669
614 745
614 911
614 981
615 737
615 788
615 883
615 923
616 677
616 682
616 772
616 824
616 885
616 942
616 962
616 975
617 721
617 724
617 978
618 699
618 705
618 734
618 751
618 759
618 763
618 779
618 892
618 944
619 769
619 785
619 787
619 812
619 952
619 978
619 999
620 790
620 853
620 962
621 776
621 791
621 805
622 738
622 998
623 719
623 940
624 689
624 771
624 878
624 960
624 970
624 993
625 652
625 678
625 826
625 835
625 877
625 878
625 950
626 721
626 845
626 847
626 904
626 907
626 931
627 697
627 767
627 803
627 867
627 982
628 691
628 785
628 789
628 901
628 950
628 965
629 744
629 802
629 941
630 634
630 642
630 644
630 648
630 650
630 698
630 845
630 938
630 966
630 971
631 678
631 778
632 677
632 690
632 753
632 793
633 683
634 642
634 785
634 837
635 795
635 853
636 662
636 691
636 717
636 737
636 785
637 854
637 992
638 656
638 724
638 788
638 867
638 914
638 916
638 967
639 712
639 722
639 794
640 686
640 746
640 757
640 760
640 775
640 782
640 875
640 906
640 920
640 938
640 949
640 994
641 649
641 685
641 731
641 765
641 769
641 829
641 980
642 698
642 754
643 833
643 855
644 760
644 786
644 852
644 895
644 963
645 789
645 883
645 925
646 740
646 777
646 916
646 923
646 938
646 948
647 658
647 692
647 743
647 768
647 803
647 971
647 991
648 693
648 725
648 891
648 900
648 903
648 927
649 693
649 720
649 726
649 832
649 860
649 902
649 915
650 672
650 732
650 779
650 911
650 926
650 963
651 712
651 790
651 910
651 965
652 680
652 751
652 757
652 776
652 778
652 826
652 835
652 866
652 878
652 899
652 906
652 916
652 950
652 956
653 693
653 774
653 799
653 874
654 657
654 678
654 679
654 727
654 843
654 868
654 971
655 765
655 793
655 844
656 806
656 841
656 881
656 902
657 678
657 784
657 835
657 843
657 864
658 844
658 923
658 962
659 698
659 940
660 751
660 923
661 695
661 877
662 665
662 679
662 707
662 721
662 774
662 813
662 840
662 895
662 896
662 936
662 951
662 966
662 968
662 972
662 983
663 685
663 818
663 943
663 973
664 713
664 764
664 872
664 886
664 910
664 962
664 970
664 973
664 996
665 734
665 813
665 896
665 914
665 951
665 972
666 683
666 693
666 718
666 746
666 804
666 913
666 943
666 986
666 987
667 699
667 754
667 774
667 777
667 977
668 693
668 728
668 735
668 792
668 959
668 961
668 979
669 744
670 913
670 928
670 946
670 983
670 986
671 741
671 767
671 771
671 830
671 969
671 974
672 710
672 726
672 728
672 780
672 827
672 855
672 864
672 876
672 893
672 997
672 999
673 710
673 719
673 856
674 752
674 981
674 992
675 677
675 679
675 699
675 709
675 752
675 790
675 900
675 959
675 969
676 724
676 734
676 817
676 868
676 885
676 887
676 911
676 951
677 690
677 713
677 717
677 753
677 773
677 804
677 987
678 693
678 843
678 845
678 855
678 868
678 894
678 971
679 707
679 841
680 776
680 989
681 703
681 725
681 846
681 860
681 948
682 718
682 740
682 771
682 811
682 842
682 863
682 914
683 694
683 722
683 915
684 745
684 818
685 737
685 765
685 769
686 824
686 845
686 931
686 963
686 985
686 988
687 900
688 780
688 890
689 866
689 993
690 753
690 999
691 785
691 895
691 977
692 718
692 743
692 803
692 991
693 719
693 720
693 738
693 757
693 847
693 860
693 902
693 936
693 937
694 708
694 722
694 898
694 915
695 748
695 776
695 803
695 848
695 937
696 852
696 895
696 984
697 699
697 728
697 757
697 815
697 824
697 834
697 865
697 958
697 985
698 830
699 779
700 701
700 721
700 770
700 870
701 728
701 735
701 769
701 824
701 943
701 961
701 979
701 985
702 775
702 854
702 922
702 923
702 924
702 967
703 761
703 846
703 983
704 754
704 793
704 844
704 845
705 791
705 811
705 932
706 717
706 765
706 928
706 939
707 711
707 721
707 796
707 823
707 951
707 970
708 839
708 863
708 924
708 952
709 786
709 790
709 802
709 833
709 969
709 997
710 774
710 940
710 989
711 770
711 818
711 823
711 932
711 973
712 726
712 755
712 788
712 794
712 893
712 965
713 724
713 754
713 886
713 910
713 938
714 884
714 942
714 981
715 724
715 755
715 967
716 732
716 800
716 828
716 952
716 959
716 973
717 746
717 819
717 933
718 738
718 741
718 858
718 893
718 913
718 986
719 940
720 724
720 793
720 860
720 902
720 936
721 768
721 769
721 797
721 806
721 838
721 891
721 905
722 751
722 788
722 915
723 735
723 799
723 855
723 874
724 732
724 745
724 755
724 818
724 909
724 959
724 967
724 998
725 757
725 795
725 845
725 853
725 898
725 998
726 740
726 816
726 830
726 921
727 911
727 926
728 735
728 893
728 931
729 915
729 998
730 749
730 760
730 861
731 748
731 765
731 769
732 853
732 882
732 937
732 973
733 760
733 944
734 748
734 754
734 759
734 774
734 777
734 797
734 957
735 754
735 766
735 961
735 969
736 874
736 942
737 740
737 816
737 921
737 955
737 998
738 893
738 913
738 986
739 744
739 799
739 874
740 786
740 816
740 921
740 948
741 794
741 869
742 749
742 807
742 827
742 832
742 917
742 918
742 974
742 977
743 803
743 830
743 850
743 991
744 802
745 822
745 829
745 866
745 884
745 901
745 921
745 937
746 782
746 808
746 884
746 906
746 920
747 839
747 862
748 780
748 848
748 857
748 937
749 918
749 977
750 795
750 963
751 782
751 794
751 845
751 872
751 941
751 961
752 790
752 817
752 902
752 959
752 969
753 845
753 976
754 774
754 777
754 797
754 801
754 813
754 818
754 885
754 921
754 947
754 953
754 957
754 972
755 833
755 951
756 762
756 876
756 907
756 948
757 803
757 834
757 843
757 865
757 895
757 919
758 836
758 873
758 900
759 798
760 816
760 861
760 887
760 949
761 788
761 833
761 953
762 948
763 796
763 819
763 905
764 831
764 919
764 930
764 994
765 769
765 785
765 853
765 856
765 897
765 980
765 981
765 985
765 998
766 830
766 903
766 973
767 785
767 830
767 904
767 926
767 933
767 963
768 824
768 963
768 985
768 988
769 801
769 842
769 980
769 985
769 988
770 819
770 845
770 895
770 909
770 960
771 788
772 857
772 885
773 821
773 973
774 777
774 874
774 957
775 786
775 797
775 896
775 935
775 984
776 821
776 857
776 866
776 908
776 929
776 932
776 938
776 939
776 954
776 963
777 789
777 866
777 872
777 946
777 947
777 957
777 981
778 798
778 973
779 908
779 918
779 990
780 794
780 804
780 810
780 827
780 829
780 833
780 861
780 864
780 893
780 997
781 791
781 986
782 906
782 926
783 849
783 890
783 920
783 967
783 973
784 885
784 946
784 949
785 901
785 986
786 797
786 875
786 892
786 896
786 919
786 935
786 956
786 968
786 981
786 984
786 997
787 821
787 986
788 820
788 833
788 860
788 976
789 850
789 897
789 949
790 822
790 865
790 928
790 959
790 963
790 969
791 793
791 844
792 797
792 807
792 813
792 879
792 888
792 922
792 946
793 844
793 879
794 905
794 940
794 970
795 841
795 933
796 966
797 800
797 843
797 892
797 896
797 913
797 935
797 984
797 998
798 837
798 854
798 884
799 874
799 878
799 933
799 943
799 946
799 949
799 998
800 801
800 897
800 952
800 998
801 807
801 898
801 952
802 842
802 877
802 984
803 959
803 991
804 939
806 809
806 856
806 889
806 903
806 972
807 827
807 922
807 928
808 848
808 887
808 961
809 856
810 814
810 876
810 881
810 928
810 937
810 953
811 865
811 874
811 914
812 877
812 974
812 999
813 908
813 951
813 966
813 968
813 972
813 998
814 902
814 928
814 953
815 834
815 846
815 865
815 958
816 940
817 994
818 822
819 900
819 909
819 918
819 960
820 833
820 918
820 976
820 977
821 843
821 973
822 829
822 884
822 971
823 828
824 904
824 922
824 933
824 950
824 963
824 981
824 985
824 988
824 994
825 999
826 950
826 959
827 864
827 893
828 870
828 908
828 951
829 874
829 884
829 908
829 931
831 896
831 911
831 926
831 929
831 951
832 849
832 890
832 951
833 999
834 843
834 865
835 878
835 950
836 844
836 851
836 873
836 880
836 900
837 850
837 854
838 848
838 861
838 937
839 863
839 885
839 890
839 912
839 924
839 934
840 886
840 919
841 851
841 948
841 955
842 857
842 903
843 868
843 930
843 948
843 971
845 892
845 902
845 907
845 925
845 931
845 942
845 990
846 861
847 871
848 924
848 937
849 850
849 857
849 890
849 954
849 973
850 894
850 898
850 899
850 919
851 858
851 873
851 900
853 877
854 877
854 928
854 935
854 950
854 967
855 899
855 924
855 932
855 968
856 889
857 995
858 900
859 865
859 874
859 981
859 999
860 902
860 936
860 969
862 964
862 985
863 865
863 876
863 924
864 942
864 958
865 891
865 958
866 906
866 937
866 993
867 900
867 901
867 992
868 899
868 971
869 930
870 873
870 886
870 947
873 880
873 893
873 900
874 972
875 945
875 967
875 991
876 928
877 932
877 937
877 956
877 987
878 950
879 922
880 900
881 912
881 992
882 907
882 998
883 897
883 950
884 977
884 994
886 910
887 919
887 948
887 981
888 994
889 916
889 951
891 927
891 956
892 935
892 977
893 949
893 950
893 997
894 898
894 899
896 935
896 984
897 952
897 977
898 899
900 906
900 908
900 987
900 998
902 936
902 944
903 967
905 944
907 931
907 941
907 972
908 947
908 972
909 934
909 960
910 972
911 926
911 974
912 934
912 938
912 962
913 942
913 948
913 986
915 950
916 938
917 918
917 977
917 982
918 977
919 952
921 954
922 923
923 969
923 986
924 943
925 931
926 977
927 949
928 937
928 953
929 961
929 973
930 937
932 946
934 960
935 944
935 949
935 984
935 998
936 937
937 976
940 960
943 946
943 958
944 955
944 982
946 949
949 967
951 966
951 968
951 969
951 972
952 964
954 995
955 967
956 977
956 987
957 983
959 969
963 985
963 988
965 981
966 968
966 972
967 981
968 969
968 972
972 990
977 982
977 986
978 996
978 999
983 996
985 988
988 993
989 998
991 997
