# LFR-like benchmark
# Nodes: 10000, Edges: 95319, Communities: 982
0 16
0 255
0 606
0 700
0 878
0 2914
0 3608
0 6366
0 6404
0 6488
0 6676
0 7388
0 7968
0 8633
1 245
1 1392
1 1835
1 1949
1 3130
1 3275
1 3718
1 4034
1 4741
1 5152
1 5396
1 5681
1 6594
1 7251
1 8044
1 8318
1 8545
1 8600
1 9518
1 9884
2 273
2 2457
2 2808
2 3634
2 5146
2 5609
2 5802
2 5910
2 7045
2 8541
2 8587
2 9046
3 1069
3 1860
3 2626
3 2669
3 3488
3 3978
3 4304
3 4623
3 5168
3 6267
3 6591
3 7112
4 855
4 1834
4 2211
4 2244
4 2312
4 2376
4 2700
4 2938
4 2958
4 4857
4 5171
4 5297
4 6969
4 7152
4 7203
4 8383
4 8708
4 8912
5 713
5 746
5 1003
5 1101
5 1849
5 2674
5 3556
5 4146
5 4660
5 4941
5 4998
5 5217
5 6139
5 7019
5 7956
5 8722
5 9975
6 35
6 64
6 89
6 344
6 1023
6 1579
6 1606
6 2085
6 2115
6 2458
6 2536
6 2645
6 2739
6 2758
6 2870
6 3093
6 3172
6 3226
6 3597
6 3916
6 4113
6 5521
6 5704
6 6494
6 6687
6 6721
6 6925
6 7084
6 8653
6 8725
6 8843
6 8921
6 9727
7 1220
7 2166
7 2469
7 2941
7 3599
7 4266
7 4343
7 4618
7 5358
7 5996
7 7221
7 7280
7 8103
7 8373
7 8669
8 29
8 2892
8 3191
8 3852
8 4435
8 6677
8 8070
8 8684
9 171
9 845
9 5824
9 6820
9 7217
9 7447
9 7726
9 8032
9 8759
9 9070
9 9366
9 9441
10 1364
10 2803
10 2838
10 2972
10 4531
10 8832
10 9258
10 9689
11 938
11 1001
11 1504
11 2072
11 2238
11 2607
11 2690
11 3322
11 4640
11 5240
11 7090
11 7222
11 7358
11 7502
11 7913
11 8063
11 8337
11 8758
11 9450
12 1701
12 2908
12 3725
12 3931
12 4383
12 4826
12 5927
12 6410
12 6453
12 6864
12 7187
12 8760
12 9928
13 546
13 881
13 1334
13 5670
13 5992
13 6487
13 7515
13 7546
13 7714
13 8115
13 8228
13 8882
13 8979
13 9994
14 38
14 226
14 1369
14 2052
14 2508
14 2677
14 4409
14 5406
14 5516
14 5553
14 6684
14 7116
14 7591
14 8292
14 8979
14 9247
14 9608
15 986
15 1718
15 2227
15 4063
15 4279
15 5326
15 5498
15 5649
15 6521
15 6952
15 7459
15 8425
15 8974
16 533
16 1378
16 1443
16 1656
16 1785
16 3889
16 4999
16 6100
16 6903
16 8330
17 267
17 307
17 450
17 2104
17 2572
17 3298
17 3699
17 3860
17 4998
17 5211
17 6366
17 6441
17 6915
17 7567
17 7852
17 8296
17 9005
17 9181
18 110
18 133
18 326
18 713
18 1558
18 3252
18 3346
18 3408
18 3414
18 4477
18 4655
18 4843
18 5335
18 5415
18 5737
18 6072
18 6325
18 6476
18 6660
18 6930
18 7910
18 8086
18 8191
18 8832
18 9259
18 9545
19 455
19 808
19 2816
19 5502
19 6376
19 7083
19 8571
19 8630
19 8826
19 9015
20 72
20 797
20 881
20 1003
20 1059
20 1071
20 1817
20 2167
20 3409
20 4051
20 4557
20 4902
20 5195
20 5370
20 5738
20 5777
20 6065
20 6870
20 7483
20 7784
20 8156
20 8743
20 8834
20 8872
20 8877
20 9383
20 9505
20 9732
21 243
21 382
21 1090
21 1545
21 1741
21 2342
21 2445
21 2803
21 5805
21 5806
21 6307
21 6549
21 8755
21 9078
21 9425
21 9426
22 790
22 1212
22 3347
22 3423
22 5057
22 7349
22 7986
22 8882
22 9389
23 251
23 836
23 907
23 2948
23 3386
23 3476
23 4441
23 5717
23 6653
23 8809
23 9274
23 9728
23 9924
24 101
24 217
24 546
24 677
24 1120
24 1167
24 1238
24 1559
24 1672
24 1849
24 2340
24 2538
24 3068
24 3176
24 3211
24 3980
24 4183
24 4228
24 4489
24 4526
24 4664
24 4742
24 4960
24 5037
24 5774
24 6159
24 6482
24 6654
24 6742
24 6883
24 7166
24 7219
24 7502
24 7519
24 7580
24 8019
24 8169
24 8268
24 8350
24 8513
24 9074
24 9171
24 9364
24 9763
24 9975
25 1158
25 1172
25 1568
25 1631
25 1647
25 3398
25 5168
25 5831
25 6369
25 6565
25 7129
25 7721
25 8428
25 8446
25 8473
26 440
26 697
26 1450
26 1752
26 3140
26 3632
26 3852
26 5568
26 6047
26 6245
26 6523
26 9668
27 459
27 994
27 1466
27 2798
27 4349
27 5220
27 5482
27 5709
27 6430
27 6470
27 6827
27 7277
27 8277
28 48
28 298
28 314
28 643
28 850
28 1006
28 1175
28 1914
28 2292
28 2941
28 3034
28 3122
28 4440
28 4441
28 4757
28 6508
28 6566
28 7524
28 7880
28 8382
28 8668
28 8928
28 9068
28 9870
29 1248
29 1713
29 3633
29 3717
29 4992
29 5210
29 6568
29 6609
29 7392
29 8687
29 9123
29 9378
29 9568
30 209
30 239
30 698
30 1548
30 1738
30 2449
30 2911
30 3051
30 3796
30 3880
30 4296
30 4455
30 4760
30 5306
30 5703
30 6079
30 6243
30 6505
30 6823
30 7074
30 7333
30 7987
30 8386
30 9075
31 284
31 664
31 751
31 1136
31 1634
31 1674
31 3336
31 3597
31 5242
31 5836
31 5883
31 6545
31 6615
31 8191
31 8427
31 8648
31 9711
31 9781
31 9849
32 101
32 215
32 875
32 1971
32 2165
32 3080
32 3142
32 3291
32 3907
32 4282
32 4915
32 6380
32 6408
32 6625
32 6826
32 7689
32 8774
32 8813
32 9150
32 9218
32 9271
33 343
33 634
33 710
33 963
33 1349
33 1587
33 1917
33 2068
33 2086
33 2158
33 2195
33 2326
33 2544
33 2704
33 4133
33 4256
33 4456
33 4499
33 4845
33 4935
33 4970
33 5057
33 5307
33 5444
33 5577
33 5625
33 5646
33 5982
33 6138
33 6197
33 6452
33 6573
33 6574
33 6920
33 7153
33 7260
33 7262
33 7609
33 7937
33 8039
33 9070
33 9160
33 9454
33 9731
33 9763
33 9797
33 9864
33 9919
34 1146
34 1441
34 2148
34 2274
34 3360
34 5174
34 5213
34 5900
34 6979
34 6980
34 7827
34 8653
34 9155
34 9244
35 130
35 220
35 1785
35 1816
35 2129
35 3871
35 4323
35 4347
35 4507
35 5443
35 8553
35 9252
35 9987
36 573
36 1581
36 2799
36 3585
36 3653
36 3800
36 4030
36 4595
36 4732
36 4784
36 4988
36 5342
36 5352
36 6107
36 6500
36 7168
36 7177
36 8732
36 8925
36 9203
36 9795
36 9853
37 373
37 1342
37 1726
37 2247
37 2251
37 2499
37 4621
37 4714
37 6007
37 8022
37 8542
37 8580
38 226
38 1394
38 2099
38 2350
38 2508
38 2579
38 2677
38 2808
38 3151
38 4044
38 4443
38 5267
38 5271
38 5328
38 5685
38 6369
38 6981
38 7598
38 8112
38 8415
38 8435
38 8790
38 8946
38 8979
38 9088
38 9113
38 9608
39 285
39 415
39 1127
39 1529
39 1664
39 1723
39 1835
39 2296
39 4781
39 5127
39 6658
39 6857
39 7807
39 8056
39 8071
40 774
40 857
40 898
40 1092
40 1130
40 1199
40 2884
40 3430
40 4096
40 4626
40 4732
40 5513
40 7359
40 8629
40 8678
40 9116
40 9986
41 332
41 668
41 1439
41 1521
41 2059
41 2187
41 3409
41 3718
41 5110
41 5309
41 6542
41 7155
41 8472
41 9013
41 9828
42 697
42 854
42 1071
42 2169
42 2547
42 2754
42 3581
42 4624
42 4813
42 5039
42 5366
42 7406
42 7448
42 8282
42 8710
42 9172
43 829
43 1496
43 2754
43 2908
43 3429
43 3779
43 3798
43 4240
43 4495
43 4853
43 6006
43 6399
43 7756
43 8359
43 8819
43 9162
44 1329
44 1985
44 2314
44 2512
44 4878
44 4926
44 5088
44 5996
44 6279
44 6723
44 7247
44 7297
44 7338
44 7707
44 9159
45 242
45 259
45 300
45 880
45 1756
45 1840
45 1943
45 3006
45 4852
45 6816
45 9640
46 359
46 832
46 1830
46 3150
46 5091
46 5356
46 5846
46 7180
46 8307
46 8648
46 9521
47 540
47 1675
47 2500
47 3270
47 4263
47 8453
47 8457
48 551
48 850
48 1175
48 1432
48 2334
48 2878
48 3798
48 5605
48 6285
48 7026
48 7090
48 8009
48 8373
48 8764
49 1863
49 2046
49 2938
49 3202
49 4751
49 6152
49 6821
49 6872
49 7278
49 9013
49 9371
50 408
50 1364
50 2061
50 2274
50 2940
50 4624
50 5064
50 5382
50 6740
50 6907
50 7930
50 7964
50 8412
50 9394
50 9507
50 9708
51 142
51 1794
51 2998
51 3928
51 4158
51 4848
51 7977
51 8428
51 8546
51 8978
51 9259
51 9540
52 201
52 614
52 1107
52 1188
52 1453
52 1824
52 2066
52 2159
52 3246
52 3253
52 3319
52 3509
52 3523
52 5065
52 5776
52 8138
52 8368
52 8412
52 8459
52 9104
52 9931
53 820
53 902
53 1436
53 1664
53 1760
53 1934
53 2145
53 2666
53 2754
53 3083
53 3198
53 3487
53 3712
53 4323
53 4577
53 4723
53 4796
53 4900
53 5357
53 5369
53 5841
53 6047
53 6212
53 6255
53 6965
53 7250
53 7259
53 7843
53 7857
53 7913
53 8141
53 8153
53 8393
53 8808
53 8959
53 9072
53 9184
53 9258
53 9390
53 9717
54 1215
54 1245
54 1494
54 2239
54 2822
54 2868
54 2910
54 3022
54 3443
54 3652
54 3890
54 4725
54 5473
54 6494
54 6554
54 7602
54 9638
54 9945
55 433
55 864
55 1723
55 2059
55 2576
55 4812
55 4993
55 5600
55 5833
55 6429
55 9635
55 9964
55 9997
56 282
56 702
56 791
56 1840
56 4682
56 5177
56 6845
56 7669
56 8134
56 8310
56 9958
57 1321
57 1394
57 1561
57 1972
57 2305
57 2686
57 3133
57 3349
57 3606
57 3837
57 4103
57 4854
57 5580
57 5599
57 6745
57 7037
57 8298
57 8426
57 8712
57 8860
57 9918
57 9955
58 475
58 1541
58 1880
58 2862
58 4026
58 4716
58 4766
58 6285
58 6632
58 7596
58 7627
58 8256
59 132
59 609
59 731
59 819
59 874
59 1559
59 3440
59 3743
59 4543
59 5493
59 6393
59 8399
59 8522
59 8670
59 8897
59 9630
60 236
60 1247
60 1344
60 1345
60 1623
60 1720
60 2176
60 2623
60 3076
60 3295
60 3380
60 4307
60 4360
60 4392
60 4436
60 4907
60 5101
60 5383
60 5392
60 6233
60 6417
60 6978
60 7411
60 7579
60 7933
60 8140
60 8578
60 8582
60 8672
60 8677
60 8863
60 9445
60 9478
60 9522
60 9978
61 477
61 596
61 740
61 2752
61 2808
61 3444
61 3776
61 4587
61 5604
61 6259
61 6503
61 6756
61 7262
61 7308
61 8233
61 8247
61 8663
61 9953
62 119
62 221
62 1050
62 2051
62 4032
62 4989
62 5280
62 5419
62 6619
62 8064
62 8327
62 8837
62 9481
63 770
63 1728
63 2122
63 3076
63 4911
63 5177
63 5349
63 6013
63 6075
63 7302
63 7460
63 7512
63 7675
63 9463
63 9675
64 171
64 195
64 328
64 744
64 795
64 1170
64 1310
64 1994
64 1999
64 2076
64 2351
64 2490
64 3202
64 3928
64 3956
64 4677
64 5223
64 5587
64 6276
64 6471
64 6895
64 7461
64 7541
64 8736
64 9209
64 9378
64 9441
64 9586
65 695
65 970
65 1989
65 2628
65 3431
65 3762
65 3908
65 3992
65 4201
65 4813
65 5381
65 5886
65 5913
65 6997
65 7665
65 7762
65 8682
65 8710
65 8774
65 8924
65 9247
65 9252
65 9413
65 9648
65 9838
66 352
66 648
66 701
66 1911
66 2018
66 3884
66 4226
66 4588
66 4695
66 5240
66 5960
66 7368
66 9018
66 9594
67 1001
67 2225
67 3527
67 4679
67 5399
67 6703
67 8720
67 9517
68 780
68 1106
68 2452
68 2849
68 3389
68 4114
68 7054
68 7079
68 7260
68 7561
68 9264
68 9601
68 9650
69 706
69 902
69 1232
69 1591
69 2198
69 2438
69 3194
69 3565
69 5037
69 5253
69 5631
69 6396
69 6469
69 6784
69 7102
69 8031
69 8707
69 8798
69 9799
70 792
70 1312
70 3898
70 4108
70 4691
70 5450
70 6208
70 6218
70 6594
70 6658
70 8839
70 9418
71 289
71 432
71 464
71 485
71 700
71 702
71 860
71 1110
71 1663
71 1886
71 1899
71 2199
71 2472
71 2599
71 2981
71 3050
71 3926
71 3935
71 4036
71 4758
71 5539
71 5685
71 5855
71 6158
71 6228
71 6442
71 6446
71 6597
71 7492
71 7676
71 7731
71 7971
71 7990
71 8165
71 8331
71 8523
71 8764
71 8795
71 8934
71 9317
71 9591
71 9847
72 99
72 136
72 433
72 448
72 615
72 704
72 1122
72 1492
72 1720
72 2041
72 2178
72 2221
72 3080
72 3099
72 3358
72 4297
72 4356
72 4913
72 5302
72 5436
72 5489
72 5872
72 6122
72 6238
72 6490
72 6718
72 6771
72 7499
72 7575
72 8781
72 8968
72 9187
72 9388
73 136
73 184
73 729
73 1858
73 2127
73 2128
73 2493
73 2841
73 4067
73 4334
73 6069
73 7602
73 7733
74 1408
74 1682
74 2208
74 2447
74 3140
74 3839
74 4297
74 5115
74 6584
74 6759
74 6930
74 7178
74 7640
74 8224
74 8358
74 9750
75 505
75 1048
75 4440
75 4625
75 5240
75 5952
75 6964
75 7435
75 9434
75 9899
76 349
76 576
76 1732
76 1964
76 2020
76 2225
76 3184
76 3222
76 3329
76 3414
76 3887
76 4207
76 4330
76 4360
76 4443
76 5002
76 5388
76 5686
76 5810
76 6292
76 6965
76 7046
76 7066
76 7437
76 7440
76 8050
76 8097
76 8263
76 8637
76 8817
76 8932
76 9067
76 9184
76 9423
76 9687
76 9692
77 967
77 1324
77 4813
77 5572
77 6654
77 7073
77 7520
77 7955
77 8006
77 8091
77 8182
77 8318
77 8878
77 9316
77 9674
78 397
78 513
78 1075
78 2744
78 2816
78 3074
78 4719
78 5061
78 5272
78 5732
78 6645
78 6861
78 7224
78 7270
78 7707
78 7771
78 9544
79 102
79 110
79 514
79 617
79 1331
79 1383
79 2570
79 3649
79 3839
79 5058
79 6033
79 9801
79 9977
80 229
80 490
80 803
80 900
80 1546
80 2198
80 3464
80 4116
80 4641
80 6711
80 6839
80 7048
80 7329
80 7371
80 8321
80 8461
80 9325
80 9526
81 205
81 300
81 346
81 404
81 1347
81 1818
81 2610
81 5647
81 6550
81 7820
81 8375
81 9071
81 9923
82 306
82 381
82 662
82 2126
82 3055
82 3393
82 3534
82 4375
82 4467
82 4501
82 4615
82 4781
82 6276
82 6788
82 6876
82 8102
82 8818
82 8938
83 323
83 928
83 975
83 1000
83 1087
83 1234
83 1619
83 1634
83 1678
83 2233
83 2618
83 3352
83 3406
83 3530
83 3941
83 4441
83 4464
83 4585
83 5077
83 5352
83 5654
83 6090
83 6746
83 7382
83 7401
83 7917
83 8114
83 9033
83 9266
83 9403
83 9701
83 9725
84 376
84 1051
84 2962
84 4147
84 4545
84 4846
84 5516
84 5990
84 8919
84 9013
84 9224
85 948
85 3089
85 4263
85 5501
85 6630
85 6690
85 6937
85 7035
85 7228
85 8127
85 8324
85 8920
85 9151
85 9633
85 9647
86 197
86 521
86 576
86 824
86 919
86 1626
86 1707
86 2448
86 2483
86 2607
86 2784
86 2811
86 3071
86 3156
86 3176
86 3301
86 3530
86 3879
86 4116
86 5010
86 5419
86 5499
86 6009
86 6194
86 6259
86 6277
86 6413
86 6552
86 6793
86 7080
86 7083
86 7105
86 7359
86 7723
86 7789
86 8580
86 8624
86 8748
86 8958
86 9751
87 512
87 1070
87 1859
87 4390
87 4516
87 4699
87 5113
87 5724
87 6014
87 6018
87 6580
87 6713
87 7939
87 8649
87 8695
87 8917
87 9383
87 9568
88 960
88 3964
88 4741
88 5213
88 5506
88 6171
88 7622
88 7801
88 9321
88 9464
89 982
89 1180
89 1571
89 1673
89 1844
89 2013
89 2033
89 2993
89 3080
89 3462
89 5422
89 5739
89 5801
89 6612
89 8482
89 9631
90 1195
90 1946
90 2241
90 2274
90 2887
90 3552
90 3714
90 4151
90 5472
90 8230
91 215
91 568
91 1466
91 3105
91 3262
91 3427
91 3862
91 5272
91 6583
91 6637
91 7540
91 7559
91 7566
91 8007
91 8188
91 8938
91 9214
91 9756
92 676
92 1239
92 2336
92 3042
92 4794
92 5046
92 6198
92 6390
92 6447
92 6620
92 6625
92 6968
92 7360
92 7750
92 7784
92 8127
92 8351
92 8573
92 9287
92 9480
92 9606
92 9714
92 9975
93 1079
93 1755
93 2231
93 4162
93 4647
93 4882
93 4885
93 5186
93 6726
93 8243
93 9047
93 9603
94 198
94 1558
94 1630
94 1669
94 1834
94 2753
94 2892
94 2934
94 2974
94 3191
94 4743
94 5837
94 6228
94 7179
94 8135
94 9042
94 9122
94 9408
95 1526
95 1759
95 2748
95 2804
95 2963
95 3494
95 6430
95 8034
95 9007
95 9779
95 9909
96 280
96 372
96 534
96 802
96 1294
96 1350
96 1548
96 1553
96 2141
96 2328
96 2956
96 2995
96 3414
96 3683
96 3824
96 4453
96 4692
96 4921
96 5003
96 5179
96 5396
96 5622
96 5791
96 6163
96 6465
96 6635
96 6706
96 6898
96 7112
96 7315
96 7635
96 7712
96 7780
96 8078
96 8848
96 9566
96 9853
96 9884
97 259
97 1782
97 1844
97 3116
97 3946
97 5656
97 5888
97 6727
97 7071
97 7460
97 8290
97 8857
97 9038
97 9583
98 159
98 388
98 533
98 654
98 722
98 966
98 1454
98 1797
98 2143
98 2608
98 3508
98 3784
98 4244
98 4415
98 4781
98 4818
98 5116
98 5186
98 5521
98 5652
98 6132
98 6221
98 7187
98 7419
98 7464
98 7482
98 7603
98 8047
98 8204
98 8384
98 8619
98 9132
98 9142
98 9183
98 9259
98 9303
98 9379
99 214
99 642
99 839
99 1122
99 1924
99 2178
99 2588
99 3674
99 4055
99 4412
99 4435
99 4499
99 5224
99 5872
99 6238
99 6490
99 6503
99 6729
99 7080
99 7168
99 7365
99 7499
99 8225
99 8269
99 8362
99 8656
99 9388
99 9415
100 160
100 442
100 1245
100 1548
100 2758
100 3140
100 3426
100 5279
100 6089
100 6201
100 6455
100 7236
100 9314
101 999
101 1190
101 1342
101 1793
101 2009
101 2584
101 3415
101 3573
101 3741
101 5392
101 5891
101 6648
101 7442
101 7575
101 7974
101 8058
101 8177
101 8443
101 9434
101 9898
102 434
102 977
102 1184
102 1825
102 1844
102 2491
102 2501
102 2902
102 2912
102 3927
102 3980
102 4380
102 4786
102 6461
102 6615
102 7135
102 7438
102 8454
102 9338
102 9737
103 226
103 782
103 1956
103 1992
103 2508
103 2677
103 3173
103 4138
103 4514
103 6663
103 8964
103 8979
104 196
104 786
104 1056
104 1515
104 3912
104 4070
104 4258
104 5085
104 5240
104 5947
104 8716
104 8764
104 9506
105 828
105 3305
105 3649
105 4153
105 4637
105 5280
105 5719
105 5841
105 7489
105 8107
105 8591
105 8780
105 8945
105 9160
105 9545
106 733
106 1826
106 1914
106 2584
106 2672
106 2984
106 4804
106 6366
106 8122
106 8422
107 174
107 829
107 1793
107 2809
107 3834
107 4620
107 4622
107 4761
107 4925
107 5050
107 5525
107 5829
107 6168
107 6459
107 6509
107 6783
107 7994
107 9863
108 360
108 729
108 1660
108 2189
108 2306
108 4724
108 5378
108 6976
108 7245
108 8906
108 8981
108 8990
108 9153
109 198
109 298
109 422
109 493
109 651
109 1123
109 1568
109 2321
109 2461
109 2766
109 3102
109 3338
109 3923
109 4261
109 4555
109 5068
109 5274
109 5312
109 5407
109 5792
109 5952
109 6150
109 6740
109 6769
109 7100
109 7320
109 8001
109 8144
109 8218
109 8225
109 8813
109 8844
109 9401
109 9424
109 9590
109 9794
109 9845
109 9958
110 553
110 617
110 1150
110 1279
110 2261
110 2309
110 2449
110 2494
110 2497
110 2794
110 3650
110 4598
110 4637
110 4739
110 4773
110 5058
110 5428
110 5686
110 5923
110 6416
110 6544
110 7172
110 7328
110 8149
110 8214
110 8315
110 8419
110 8656
110 8706
110 9781
110 9801
111 1834
111 1972
111 2228
111 3175
111 3534
111 4782
111 5774
111 6351
111 6831
111 7063
111 7635
111 7668
111 7831
112 115
112 1144
112 1226
112 1821
112 2609
112 2621
112 2897
112 3442
112 3634
112 3646
112 5110
112 5650
112 6937
112 7643
112 8195
113 138
113 270
113 795
113 952
113 1334
113 1418
113 2754
113 3237
113 4114
113 4383
113 4798
113 4832
113 5523
113 6846
113 7084
113 8758
113 8969
113 9196
113 9424
114 134
114 387
114 487
114 735
114 843
114 883
114 909
114 977
114 1126
114 1398
114 1421
114 1469
114 1472
114 1506
114 2086
114 2096
114 2165
114 2351
114 2882
114 3288
114 3558
114 3973
114 4004
114 4337
114 4442
114 4857
114 5450
114 5753
114 6696
114 6843
114 6878
114 6992
114 7004
114 7168
114 7385
114 7515
114 7856
114 8199
114 8567
114 9010
114 9210
114 9312
115 413
115 848
115 1346
115 1444
115 1755
115 2008
115 2147
115 2366
115 2461
115 2499
115 2914
115 3224
115 3447
115 3588
115 3880
115 3936
115 4019
115 4342
115 4919
115 4989
115 5011
115 5461
115 6001
115 6002
115 6081
115 6236
115 6241
115 6280
115 6515
115 6792
115 6873
115 7214
115 7935
115 8073
115 8189
115 8729
116 805
116 2054
116 2441
116 3784
116 4872
116 6457
116 7524
116 8062
116 8191
116 8541
116 9890
116 9919
117 1048
117 1171
117 1365
117 1691
117 1948
117 2152
117 2642
117 3028
117 3234
117 3250
117 5056
117 5189
117 5198
117 5891
117 6722
117 6843
117 6920
117 6976
117 7936
117 8056
117 8814
117 9297
118 180
118 1105
118 1664
118 1752
118 2069
118 2946
118 3004
118 4047
118 6193
118 6544
118 7233
118 7251
118 7525
118 7791
118 9325
119 569
119 1386
119 3148
119 3543
119 4680
119 5560
119 8047
119 8353
119 8926
120 437
120 1256
120 1699
120 2006
120 2251
120 3180
120 3651
120 3715
120 4421
120 4812
120 5297
120 5697
120 5797
120 6108
120 6704
120 7247
120 7248
120 7406
120 7761
120 8374
120 8951
120 9024
120 9287
121 190
121 247
121 599
121 2358
121 2801
121 3293
121 3406
121 4229
121 5900
121 5930
121 6310
121 6634
121 7200
121 7995
121 8470
121 9547
122 879
122 1369
122 1390
122 2059
122 3088
122 3435
122 3599
122 3858
122 4302
122 4419
122 4459
122 4902
122 5039
122 5045
122 5137
122 5446
122 6246
122 6876
122 8114
122 8202
122 8230
122 9512
123 1425
123 1536
123 2472
123 2806
123 5513
123 5723
123 6814
123 7098
123 7714
123 7946
123 9678
124 407
124 675
124 2682
124 3641
124 5051
124 5181
124 5452
124 5558
124 5853
124 6542
124 7602
124 8825
124 9063
124 9234
124 9689
125 282
125 712
125 2967
125 3069
125 3632
125 3652
125 4116
125 4567
125 5887
125 6554
125 7043
125 9452
126 1104
126 1444
126 1822
126 2032
126 2586
126 5970
126 6077
126 7834
126 9713
127 300
127 381
127 481
127 717
127 835
127 846
127 959
127 1008
127 1348
127 1372
127 1418
127 1494
127 1613
127 1652
127 1755
127 1942
127 2205
127 2494
127 2634
127 2641
127 2981
127 3005
127 3060
127 3217
127 3370
127 4054
127 4259
127 4575
127 4916
127 5099
127 5100
127 5531
127 5691
127 5695
127 6060
127 6085
127 6128
127 6583
127 6644
127 7430
127 7816
127 8345
127 8804
127 8892
127 9946
127 9970
128 217
128 482
128 533
128 650
128 812
128 1315
128 1467
128 1501
128 1623
128 1755
128 1916
128 2953
128 2965
128 2972
128 3098
128 3167
128 3176
128 3444
128 3605
128 3736
128 3913
128 3951
128 4448
128 4530
128 4689
128 4887
128 5673
128 7787
128 8140
128 8388
128 9032
128 9653
128 9656
128 9670
128 9691
128 9713
128 9912
129 155
129 554
129 1027
129 1264
129 1616
129 1647
129 1713
129 1976
129 1991
129 2600
129 3206
129 3379
129 4671
129 4811
129 4813
129 5388
129 5434
129 5979
129 6099
129 6191
129 6544
129 6904
129 7176
129 7410
129 7653
129 8435
129 8591
129 9090
129 9142
129 9218
129 9542
129 9953
130 658
130 1130
130 1833
130 3127
130 3205
130 3321
130 3607
130 3666
130 4029
130 5067
130 5148
130 5387
130 5539
130 6163
130 6451
130 7552
130 9831
130 9985
131 260
131 371
131 1956
131 2934
131 4159
131 4366
131 4871
131 5224
131 5702
131 6554
131 7150
131 7462
131 8164
131 8607
131 8829
131 9403
132 452
132 570
132 819
132 1202
132 1822
132 1979
132 2129
132 2536
132 3246
132 3279
132 3326
132 3743
132 4123
132 4453
132 6205
132 6300
132 6510
132 7024
132 7272
132 7707
132 7889
132 7955
132 8041
132 8395
132 8399
132 8522
132 8782
132 8792
132 9062
132 9645
132 9770
133 328
133 625
133 937
133 1088
133 1941
133 1993
133 2660
133 3008
133 3053
133 3252
133 3414
133 3947
133 4032
133 4256
133 4477
133 5415
133 5737
133 5780
133 5848
133 6272
133 6305
133 6379
133 6408
133 6476
133 6483
133 6535
133 7166
133 7257
133 7417
133 7478
133 7517
133 7744
133 9044
133 9480
133 9516
133 9595
133 9880
133 9939
134 1467
134 1506
134 1839
134 2165
134 2369
134 5278
134 5764
134 6206
134 7168
134 7882
134 8205
134 9010
134 9681
135 579
135 1035
135 1383
135 1605
135 4240
135 4650
135 4754
135 4892
135 5207
135 5969
135 6375
135 6669
135 7911
136 1193
136 3852
136 4384
136 5575
136 6881
136 7905
136 8069
136 8849
136 8943
137 1516
137 1598
137 1808
137 1845
137 1886
137 2028
137 2246
137 2567
137 2620
137 3474
137 3642
137 3666
137 4624
137 4730
137 5052
137 5082
137 5103
137 5298
137 5597
137 8176
137 8824
137 9082
137 9475
137 9728
137 9751
137 9840
137 9854
138 254
138 768
138 1224
138 1757
138 2416
138 2577
138 2582
138 3749
138 3908
138 4861
138 4949
138 5189
138 6971
138 7610
138 8609
138 9103
138 9850
138 9858
138 9938
139 1170
139 2884
139 4626
139 5259
139 6186
139 6964
139 7689
139 8629
139 9098
139 9484
139 9526
140 1600
140 1935
140 3215
140 6041
140 6367
140 9021
140 9093
141 450
141 1892
141 1993
141 3816
141 4351
141 4897
141 5082
141 5174
141 5412
141 6972
141 8318
141 9020
141 9444
142 746
142 1296
142 1664
142 1680
142 4437
142 4704
142 5048
142 5345
142 5962
142 6516
142 6525
142 6916
142 8832
143 440
143 533
143 1253
143 1615
143 1823
143 2197
143 2243
143 3005
143 3358
143 3840
143 4460
143 5261
143 5401
143 5523
143 5766
143 5953
143 6099
143 6603
143 7360
143 7462
143 7529
143 8032
143 8076
143 8159
143 8219
143 8435
143 8437
143 8471
143 8608
143 8812
143 8953
143 9228
143 9711
143 9733
143 9742
144 160
144 541
144 3431
144 3762
144 4195
144 4231
144 4376
144 5598
144 5886
144 5913
144 5943
144 7317
144 7452
144 7464
144 8682
144 8749
145 282
145 606
145 750
145 952
145 1724
145 2929
145 6171
145 7207
145 7581
145 7642
145 7867
145 8419
145 9885
146 225
146 459
146 1447
146 2638
146 2724
146 3726
146 3780
146 3887
146 4401
146 5613
146 5933
146 6073
146 6228
146 6249
146 6250
146 6292
146 6713
146 7425
146 7580
146 8345
146 8596
146 8752
146 9004
147 601
147 2317
147 2883
147 3397
147 3910
147 4595
147 4862
147 5873
147 6463
147 6886
147 6934
147 7279
147 7585
147 7683
147 7701
147 8647
147 9630
147 9968
148 275
148 448
148 1494
148 1544
148 1669
148 1916
148 1929
148 2989
148 3960
148 4039
148 4837
148 5374
148 7401
148 7929
148 8794
148 8818
148 9462
148 9974
149 395
149 1003
149 1329
149 1445
149 1550
149 2091
149 3293
149 5042
149 5061
149 5203
149 5388
149 5830
149 6309
149 8202
149 8337
149 8527
150 169
150 749
150 817
150 2230
150 2417
150 2655
150 2745
150 2832
150 2874
150 2889
150 2943
150 2970
150 3050
150 3101
150 3490
150 4113
150 4258
150 4925
150 5345
150 5450
150 5520
150 6287
150 6465
150 6469
150 6594
150 6606
150 6832
150 7029
150 7329
150 7358
150 7394
150 7527
150 8442
150 8465
150 8660
150 8800
150 9019
150 9102
150 9227
150 9995
151 1108
151 1589
151 2797
151 3146
151 3386
151 4199
151 4861
151 5037
151 5546
151 6150
151 6543
151 6850
151 7841
151 7982
151 8419
151 8484
151 8594
151 8839
151 8963
152 735
152 1419
152 3445
152 4253
152 4303
152 4813
152 4903
152 4958
152 5501
152 5881
152 6026
152 6274
152 6575
152 6895
152 7014
152 7803
152 8095
152 9440
153 1186
153 3574
153 3585
153 3639
153 4560
153 5236
153 6226
153 6872
153 7074
153 8265
153 8676
153 8849
153 9136
154 496
154 712
154 2120
154 3862
154 4129
154 6667
154 6784
154 7291
154 8044
154 9662
154 9892
155 337
155 745
155 3181
155 3714
155 4794
155 4811
155 4901
155 6454
155 6591
155 6610
155 8583
155 8709
155 8777
156 943
156 1774
156 2147
156 3137
156 3807
156 4127
156 4136
156 4567
156 5486
156 5668
156 5894
156 6262
156 6826
156 6855
156 7149
156 8559
156 8897
157 417
157 969
157 1366
157 1811
157 2060
157 2274
157 2418
157 2869
157 3522
157 4914
157 5688
157 7041
157 7129
157 7252
157 7799
157 7895
157 8607
157 8701
157 8865
157 9230
157 9908
158 666
158 1215
158 2007
158 2917
158 3296
158 4188
158 5404
158 5831
158 5962
158 6386
158 6582
158 7721
158 7980
158 8446
158 8775
158 8814
158 8880
158 9035
158 9515
159 1984
159 3249
159 4046
159 4811
159 5367
159 5531
159 5615
159 5808
159 5970
159 6360
159 7259
159 7567
159 8492
159 8567
159 9179
159 9203
159 9776
159 9880
160 1671
160 2627
160 2936
160 3975
160 4221
160 5914
160 6820
160 7423
160 7763
160 8591
161 217
161 948
161 984
161 1248
161 1566
161 1665
161 1824
161 1924
161 2522
161 3086
161 4965
161 7382
161 7502
161 7767
161 8202
161 8478
161 9656
162 3418
162 4427
162 4762
162 4909
162 5560
162 5646
162 7255
162 7385
162 8562
162 8985
162 9531
162 9949
163 938
163 1229
163 1396
163 1694
163 1745
163 1748
163 1870
163 1979
163 2584
163 2695
163 2968
163 3107
163 3570
163 3612
163 3906
163 4309
163 4400
163 4740
163 4791
163 4832
163 5637
163 6086
163 6102
163 6937
163 6986
163 7623
163 8037
163 8065
163 8907
163 9059
163 9721
163 9740
163 9950
164 228
164 415
164 949
164 994
164 1172
164 1270
164 1507
164 1570
164 1975
164 2487
164 2867
164 3023
164 3172
164 3721
164 3801
164 4367
164 4408
164 5054
164 5621
164 6520
164 6600
164 6927
164 7152
164 7391
164 8126
164 8133
164 8960
164 9013
164 9289
164 9325
164 9643
165 973
165 1319
165 3543
165 4620
165 4761
165 6168
165 6684
165 8224
166 1495
166 2192
166 2541
166 2940
166 3150
166 3186
166 3980
166 4661
166 4668
166 6064
166 7317
166 7650
166 9861
167 2111
167 3010
167 3029
167 3056
167 3422
167 4162
167 4586
167 4965
167 5592
167 6042
167 6777
167 7524
167 7900
167 8878
167 9072
167 9153
167 9806
167 9834
168 193
168 630
168 1855
168 3017
168 4494
168 4898
168 5846
168 6755
168 7225
168 7915
168 8275
168 9150
169 534
169 3622
169 5248
169 5340
169 6132
169 7106
169 7229
169 7276
169 7950
169 9098
169 9398
169 9549
170 356
170 783
170 975
170 1932
170 1996
170 2057
170 2257
170 2725
170 2814
170 3367
170 3395
170 3595
170 3644
170 3958
170 3969
170 4514
170 4557
170 4593
170 4896
170 4982
170 5015
170 5066
170 5432
170 5709
170 5838
170 6357
170 6359
170 6480
170 6578
170 6884
170 7039
170 7059
170 7421
170 7439
170 7571
170 7848
170 8022
170 8024
170 9068
170 9236
170 9390
170 9644
170 9646
170 9721
171 265
171 329
171 705
171 1415
171 1483
171 3018
171 3041
171 3539
171 3563
171 3608
171 4333
171 7133
171 7383
171 7424
171 7426
171 8293
171 8956
171 9316
171 9449
172 832
172 1479
172 1658
172 2726
172 3168
172 3943
172 4357
172 5069
172 5257
172 5311
172 5944
172 6035
172 6869
172 8001
172 8123
172 8859
172 9563
172 9817
173 616
173 697
173 763
173 923
173 1275
173 1286
173 1672
173 2546
173 2722
173 2818
173 3054
173 3126
173 3228
173 3236
173 4909
173 5056
173 5357
173 6079
173 6092
173 6481
173 6566
173 7358
173 7592
173 7847
173 9076
173 9267
173 9698
173 9758
174 668
174 751
174 1102
174 2523
174 2749
174 2840
174 3129
174 3208
174 3383
174 3502
174 3876
174 4013
174 4056
174 5668
174 5863
174 6130
174 6138
174 6225
174 6266
174 6948
174 7636
174 8929
175 830
175 973
175 1183
175 1860
175 3542
175 6719
175 8225
175 8463
175 9302
176 690
176 1845
176 2658
176 3468
176 3661
176 4235
176 4356
176 4651
176 5174
176 5388
176 5632
176 5910
176 6653
176 7120
176 7685
176 8446
176 9269
177 1164
177 1227
177 2456
177 2822
177 3496
177 4266
177 6479
177 6536
177 6637
177 6639
177 9367
177 9527
178 1420
178 3020
178 3500
178 4670
178 6331
178 6624
178 7178
178 7405
178 8679
178 8798
178 9157
178 9164
178 9188
178 9621
179 223
179 260
179 3159
179 4025
179 6934
179 7063
179 8225
179 8454
179 9130
180 437
180 692
180 1949
180 2168
180 2216
180 5686
180 6408
180 6697
180 7006
180 7105
180 7842
180 8074
180 8585
180 8813
180 8829
180 9254
180 9567
181 229
181 471
181 944
181 1403
181 2652
181 3873
181 4558
181 4579
181 5327
181 5467
181 6441
181 7208
181 7285
181 7601
181 8446
181 8722
181 9208
181 9509
181 9617
181 9814
182 1138
182 1246
182 1603
182 1637
182 1686
182 2099
182 2170
182 2285
182 2326
182 2478
182 2763
182 2964
182 3446
182 3554
182 3756
182 3806
182 4129
182 4314
182 4494
182 4502
182 4688
182 4997
182 5222
182 5598
182 6105
182 6280
182 6404
182 6484
182 6535
182 6570
182 6943
182 7052
182 7289
182 7318
182 7621
182 7764
182 7897
182 8341
182 8886
182 8975
182 9139
182 9217
182 9610
183 286
183 567
183 623
183 977
183 1976
183 3420
183 3466
183 6633
183 6976
183 7166
183 7356
183 8142
183 8195
183 8948
183 9286
183 9594
183 9890
184 2212
184 2306
184 3293
184 4139
184 4251
184 4613
184 4795
184 5154
184 5667
184 7460
184 8190
184 8412
184 9364
184 9612
185 354
185 483
185 642
185 734
185 942
185 2965
185 3000
185 3368
185 4223
185 4407
185 5174
185 5511
185 6201
185 6881
185 8312
185 9631
186 721
186 762
186 810
186 1125
186 1513
186 1648
186 1725
186 2290
186 2292
186 2335
186 2526
186 2684
186 3072
186 3333
186 3446
186 3903
186 4283
186 4915
186 6149
186 7244
186 7561
186 7646
186 7957
186 8121
186 8487
186 9543
186 9697
186 9909
187 195
187 697
187 1008
187 1570
187 2154
187 3431
187 3762
187 4122
187 5574
187 5886
188 694
188 929
188 1052
188 2877
188 3293
188 3677
188 4993
188 5457
188 6445
188 7673
188 8071
188 8229
188 8418
188 8681
188 8943
188 9194
188 9469
189 200
189 1003
189 2109
189 2635
189 3448
189 4329
189 4593
189 5226
189 5270
189 6442
189 6626
189 7449
189 8580
189 8851
189 8909
190 1291
190 1388
190 1755
190 1971
190 2942
190 4960
190 5714
190 6867
190 6925
190 8477
190 8539
191 680
191 1705
191 2012
191 3105
191 3649
191 5904
191 6196
191 7467
191 8077
191 8161
191 8406
192 4010
192 4187
192 4263
192 4744
192 6268
192 7916
192 8538
192 9052
192 9056
192 9179
192 9345
192 9422
193 296
193 437
193 1315
193 2055
193 2213
193 2759
193 2767
193 2816
193 2818
193 3003
193 3017
193 3554
193 4064
193 4365
193 4610
193 5005
193 5089
193 5158
193 5230
193 5259
193 5943
193 6121
193 6425
193 6525
193 6633
193 6755
193 7170
193 7413
193 7836
193 7909
193 7915
193 8275
193 8331
193 8881
193 9345
193 9501
193 9586
193 9604
194 824
194 1775
194 2078
194 2565
194 2831
194 3010
194 3104
194 4815
194 4949
194 6782
194 7019
194 7483
194 8184
194 9855
195 209
195 221
195 674
195 884
195 1430
195 1487
195 1622
195 2399
195 2666
195 2781
195 2871
195 2957
195 3492
195 3564
195 3713
195 4031
195 4096
195 4429
195 4487
195 4715
195 5130
195 6985
195 8238
195 9312
195 9344
195 9404
195 9742
195 9930
195 9967
196 271
196 654
196 1258
196 1705
196 1793
196 2204
196 4070
196 4381
196 5240
196 5340
196 6535
196 6721
196 6798
196 7943
197 864
197 1362
197 1492
197 2430
197 4824
197 4831
197 5618
197 6649
197 9019
198 201
198 349
198 611
198 767
198 900
198 1817
198 1960
198 2107
198 2128
198 2354
198 3574
198 3580
198 3618
198 3642
198 4568
198 4606
198 4613
198 5251
198 5712
198 5951
198 5958
198 6235
198 6263
198 6269
198 6410
198 6559
198 6563
198 6854
198 6885
198 7148
198 7546
198 7565
198 7772
198 7860
198 7967
198 8672
198 8940
198 9266
198 9481
198 9707
199 204
199 1527
199 1824
199 1879
199 1959
199 2404
199 2459
199 3226
199 3251
199 3372
199 3656
199 3675
199 3741
199 4249
199 4559
199 4645
199 4929
199 5840
199 6731
199 6981
199 7139
199 7328
199 7525
199 8172
199 9172
199 9260
199 9861
200 325
200 676
200 739
200 1140
200 1419
200 1641
200 1661
200 1769
200 2109
200 2635
200 2768
200 2830
200 2999
200 3098
200 3596
200 4550
200 4707
200 4916
200 5130
200 5226
200 5376
200 5579
200 6093
200 6291
200 6626
200 7029
200 7239
200 7303
200 7449
200 7764
200 8109
200 8152
200 8391
200 8565
200 8885
200 8906
200 8909
200 9029
200 9190
200 9260
200 9674
201 680
201 1036
201 1257
201 1499
201 1736
201 1959
201 1983
201 2427
201 2836
201 2860
201 3244
201 3724
201 4364
201 4392
201 4604
201 4934
201 5131
201 5528
201 5556
201 5696
201 5776
201 6409
201 6545
201 6754
201 6818
201 6836
201 6857
201 7117
201 7578
201 7670
201 7830
201 7834
201 7901
201 8215
201 8458
201 8790
201 9175
201 9313
201 9650
201 9768
202 233
202 840
202 1229
202 1538
202 2036
202 3479
202 3641
202 4104
202 4294
202 4333
202 4403
202 4493
202 4524
202 4816
202 5028
202 5259
202 5926
202 6259
202 6735
202 7473
202 7497
202 7895
202 8016
202 8138
202 8286
202 8570
202 9213
203 209
203 254
203 841
203 1352
203 2776
203 4741
203 5819
203 6200
203 6426
203 6593
203 7650
203 7923
203 8004
203 8737
203 8893
203 9667
204 1881
204 2376
204 3136
204 3264
204 4140
204 4206
204 4656
204 6348
204 6817
204 7232
204 9179
205 2153
205 3391
205 3965
205 5237
205 5386
205 5580
205 6358
205 6893
205 8417
205 8640
206 776
206 1102
206 1377
206 1406
206 2545
206 3803
206 4074
206 4209
206 4691
206 6883
206 7145
206 7949
206 8874
206 8987
206 9076
206 9605
206 9667
207 1428
207 1592
207 3500
207 3608
207 4551
207 5390
207 5663
207 5907
207 6275
207 7273
207 8337
207 8520
207 8935
207 9235
208 748
208 1008
208 1124
208 1949
208 3072
208 3601
208 4153
208 4665
208 8556
208 9089
208 9132
208 9369
208 9986
209 366
209 445
209 641
209 841
209 1535
209 1974
209 2033
209 2210
209 2227
209 3003
209 3009
209 3461
209 3466
209 4029
209 4067
209 4379
209 4704
209 5819
209 5823
209 6121
209 6501
209 6636
209 6730
209 6899
209 6968
209 7217
209 7285
209 7601
209 7724
209 7785
209 7796
209 7922
209 8350
209 8352
209 8628
209 8737
209 8988
209 9424
209 9711
210 265
210 412
210 830
210 1769
210 3537
210 6098
210 6150
210 6485
210 7464
210 8108
210 8233
210 8394
211 765
211 1494
211 2172
211 2630
211 3057
211 3353
211 3367
211 4775
211 4996
211 5094
211 5407
211 5644
211 6150
211 6350
211 6755
211 6801
211 6888
211 6892
211 7720
211 8439
211 9070
211 9392
211 9514
211 9804
212 558
212 719
212 1069
212 1529
212 4145
212 4390
212 4492
212 4504
212 6525
212 7808
212 7898
212 8237
212 8261
212 9065
213 1394
213 1513
213 1529
213 2130
213 2282
213 2715
213 3109
213 4214
213 4219
213 4238
213 4923
213 5164
213 5291
213 6305
213 7429
213 8122
213 9244
213 9656
214 826
214 1214
214 1250
214 1316
214 1485
214 1487
214 1547
214 1688
214 1973
214 2527
214 2529
214 2625
214 2728
214 2792
214 2913
214 3132
214 3148
214 3351
214 3628
214 3831
214 4307
214 4775
214 4890
214 5053
214 5297
214 6868
214 6937
214 7505
214 7605
214 8035
214 8045
214 8112
214 8347
214 8756
214 8799
214 9214
214 9292
214 9411
214 9515
214 9533
214 9581
214 9621
215 380
215 872
215 890
215 1235
215 1830
215 1838
215 2014
215 2406
215 2663
215 3113
215 3709
215 3804
215 4022
215 4050
215 4238
215 4453
215 4489
215 4558
215 5311
215 5536
215 6032
215 6180
215 6335
215 6792
215 6825
215 6956
215 7489
215 7640
215 7731
215 7981
215 8232
215 8406
215 8699
215 8835
215 9130
215 9165
215 9207
215 9490
215 9779
215 9959
216 487
216 777
216 849
216 1687
216 1725
216 3345
216 3574
216 4169
216 5159
216 5711
216 6438
216 6509
216 7204
216 7785
216 8651
216 9233
216 9351
216 9510
216 9989
217 456
217 761
217 893
217 984
217 1665
217 1878
217 1924
217 3277
217 3439
217 5071
217 6199
217 7358
217 7502
217 7805
217 8478
217 8558
217 8645
217 9656
218 697
218 1022
218 1445
218 1517
218 1619
218 2964
218 4429
218 4545
218 4551
218 4896
218 5312
218 5574
218 8188
218 8383
218 8435
218 9307
219 510
219 571
219 732
219 2203
219 2908
219 3340
219 3732
219 4106
219 4422
219 4551
219 6005
219 6378
219 8146
219 9670
219 9961
220 255
220 543
220 602
220 941
220 1235
220 1457
220 1807
220 1842
220 2165
220 2171
220 2188
220 2811
220 2844
220 3015
220 3689
220 3748
220 4519
220 5062
220 6311
220 6427
220 6593
220 6660
220 6792
220 6871
220 6937
220 6975
220 7658
220 7745
220 8697
220 8852
220 9042
220 9062
220 9142
220 9265
220 9713
220 9769
220 9837
221 932
221 1442
221 1474
221 2874
221 2966
221 3192
221 3791
221 4187
221 5280
221 5550
221 6475
221 6619
221 6911
221 8182
221 8327
221 8913
221 9360
221 9532
222 259
222 1901
222 2165
222 2579
222 3015
222 3954
222 5225
222 5348
222 6256
222 7088
222 7411
222 7551
222 8878
222 8882
222 9744
222 9756
223 328
223 591
223 946
223 2339
223 2358
223 2644
223 2663
223 2930
223 3532
223 3735
223 4074
223 4843
223 4892
223 5498
223 6125
223 6134
223 6716
223 6773
223 7714
223 9378
223 9889
224 305
224 1747
224 2869
224 3152
224 3304
224 6780
224 7346
224 7351
224 8536
224 9785
225 285
225 1054
225 1092
225 1885
225 2995
225 3037
225 3529
225 3589
225 4078
225 5768
225 5845
225 5961
225 5975
225 6261
225 7442
225 7551
226 782
226 968
226 2044
226 2508
226 2677
226 3072
226 3151
226 4102
226 6180
226 7362
226 8033
226 8979
226 9331
226 9502
226 9608
227 267
227 1298
227 1453
227 1797
227 1919
227 2158
227 3541
227 3649
227 3989
227 4198
227 4409
227 4568
227 4760
227 4824
227 5042
227 5399
227 5731
227 5776
227 5824
227 6026
227 6312
227 6972
227 7213
227 7786
227 8224
227 8741
227 8769
227 8919
227 8980
228 693
228 1844
228 1977
228 2490
228 2741
228 2835
228 4178
228 4502
228 4770
228 5369
228 5839
228 5916
228 6218
228 7768
228 8364
228 8634
228 8684
228 8967
228 9064
228 9750
229 386
229 429
229 830
229 1193
229 1647
229 2113
229 2213
229 2719
229 2856
229 3026
229 3050
229 3153
229 3722
229 4207
229 4376
229 4405
229 5076
229 5091
229 5238
229 6114
229 6294
229 6345
229 6529
229 6735
229 6837
229 7389
229 7440
229 7946
229 8101
229 8600
229 9243
229 9296
229 9333
229 9529
229 9535
229 9629
229 9919
230 874
230 1552
230 1938
230 2215
230 2890
230 3101
230 3442
230 4436
230 4867
230 5654
230 7034
230 7198
230 7895
230 8729
230 9041
231 522
231 1093
231 2563
231 3646
231 3703
231 5651
231 6115
231 6967
231 7679
231 7739
231 8808
231 9643
231 9892
232 1064
232 1487
232 1605
232 3161
232 3676
232 3935
232 4084
232 4427
232 4573
232 4744
232 5076
232 6000
232 6556
232 6821
232 7829
232 9064
232 9116
233 286
233 859
233 1060
233 1373
233 1546
233 1991
233 2345
233 2460
233 2579
233 2789
233 2873
233 4051
233 4178
233 4937
233 5609
233 6223
233 6274
233 7113
233 7897
233 8612
233 8625
233 8669
233 8891
234 2477
234 4123
234 5029
234 5438
234 5808
234 6019
234 6077
234 6653
234 7040
234 7817
234 8373
234 8581
234 8596
234 8888
235 838
235 2177
235 2595
235 3133
235 3241
235 3282
235 3374
235 5265
235 5369
235 6499
235 8301
235 9335
236 274
236 544
236 554
236 644
236 1160
236 1209
236 1939
236 2172
236 2498
236 3019
236 3348
236 3571
236 3659
236 4662
236 4928
236 5270
236 5319
236 5338
236 5414
236 5938
236 6579
236 6976
236 7328
236 7709
236 7745
236 8129
236 8471
236 8857
236 8913
236 8956
236 9249
236 9402
236 9429
236 9700
237 996
237 1361
237 1416
237 3223
237 3530
237 3584
237 3585
237 4541
237 4872
237 4989
237 6154
237 6292
237 8891
237 9074
237 9241
237 9371
237 9849
238 912
238 1853
238 2092
238 2481
238 2750
238 2776
238 2813
238 4045
238 4529
238 4805
238 5405
238 5550
238 6387
238 6481
238 6538
238 8206
238 8225
238 8505
238 9101
239 508
239 3772
239 5461
239 5976
239 6998
239 7919
239 7946
239 7980
239 8024
239 8957
239 9352
239 9519
240 2282
240 2801
240 4281
240 4429
240 4741
240 5756
240 6595
240 7093
240 9163
240 9626
241 330
241 1253
241 1859
241 1998
241 2162
241 2451
241 2487
241 6068
241 6408
241 6465
241 6598
241 7895
241 8265
241 8539
241 8757
241 8832
241 8875
241 8981
242 390
242 785
242 1053
242 1575
242 2135
242 4037
242 4596
242 6701
242 7358
242 8003
242 9345
243 739
243 851
243 1019
243 1164
243 1202
243 1413
243 1741
243 1926
243 2342
243 2406
243 2445
243 2783
243 2943
243 3223
243 3253
243 3594
243 3703
243 3813
243 4574
243 5081
243 5318
243 5471
243 5565
243 5735
243 5780
243 5852
243 6429
243 6873
243 7628
243 7943
243 8040
243 8133
243 8138
243 8140
243 8457
243 9425
243 9440
243 9575
243 9674
243 9689
243 9801
244 661
244 931
244 2260
244 2823
244 3552
244 4561
244 4987
244 6767
244 7538
244 8441
245 1330
245 1671
245 2507
245 2936
245 3306
245 4075
245 4445
245 4702
245 5443
245 6300
245 6443
245 7358
245 7661
245 8093
245 8378
245 9020
245 9986
246 531
246 3109
246 4943
246 5600
246 6205
246 6739
246 7279
246 7615
246 8766
246 9033
247 251
247 681
247 1138
247 1455
247 2206
247 3700
247 3877
247 5171
247 7085
247 8390
247 9170
248 559
248 1169
248 1472
248 2160
248 2611
248 2663
248 2745
248 3903
248 4261
248 5858
248 5976
248 6042
248 7727
248 8501
248 9033
248 9139
248 9311
248 9502
248 9976
249 2191
249 2364
249 2730
249 3994
249 4689
249 4750
249 5218
249 5598
249 6091
249 7088
249 8828
249 9242
249 9330
249 9820
250 968
250 1502
250 1930
250 3876
250 4394
250 5187
250 5766
250 5875
250 6135
250 6149
250 7719
250 9162
250 9491
251 681
251 945
251 1138
251 1300
251 1553
251 1568
251 2023
251 2026
251 3877
251 4276
251 5265
251 5648
251 5681
251 6534
251 7412
251 8390
251 8932
251 9234
251 9267
252 2177
252 2498
252 2759
252 2934
252 3349
252 3639
252 4083
252 4560
252 4762
252 6000
252 6226
252 7139
252 7298
252 7301
252 7974
253 327
253 701
253 771
253 1192
253 1823
253 3418
253 4913
253 5254
253 6893
253 8068
253 8781
253 9081
253 9793
254 345
254 654
254 1484
254 1979
254 2485
254 2581
254 2724
254 2732
254 2947
254 2965
254 3245
254 3390
254 3913
254 4315
254 4572
254 4634
254 5276
254 5542
254 6096
254 6266
254 6407
254 6424
254 6548
254 6858
254 7172
254 7294
254 7439
254 7698
254 8426
254 8725
254 8760
254 8864
254 8921
254 9086
254 9097
254 9845
254 9858
254 9972
255 636
255 773
255 803
255 878
255 1281
255 1296
255 1509
255 1522
255 1580
255 1646
255 1835
255 2027
255 2383
255 2674
255 2753
255 3059
255 3275
255 3539
255 3647
255 3952
255 4520
255 4626
255 4902
255 5073
255 5159
255 5498
255 5551
255 5558
255 5623
255 5630
255 6207
255 6391
255 6547
255 6676
255 7388
255 8633
255 8808
255 8869
255 9077
255 9197
255 9250
255 9830
255 9893
256 1284
256 2364
256 2912
256 3075
256 4326
256 4966
256 5726
256 6421
256 6616
256 7410
256 7858
256 9742
257 1070
257 1690
257 1734
257 2606
257 3878
257 4516
257 4699
257 7459
257 8386
257 8911
258 526
258 662
258 802
258 1415
258 2095
258 2879
258 3143
258 3706
258 4270
258 4415
258 5144
258 8570
258 8990
258 9015
259 270
259 823
259 1208
259 1768
259 2017
259 2127
259 2169
259 2260
259 2947
259 3351
259 3419
259 3543
259 3691
259 3806
259 4070
259 4484
259 4939
259 5357
259 5957
259 6132
259 6164
259 6302
259 6680
259 6692
259 6964
259 7103
259 7352
259 7399
259 7795
259 7973
259 8066
259 8768
259 9110
259 9449
259 9770
260 473
260 718
260 962
260 1427
260 1438
260 1468
260 1939
260 1979
260 2521
260 2689
260 2705
260 3548
260 3891
260 4361
260 5571
260 6189
260 6649
260 7034
260 8072
260 8499
260 8625
260 8708
260 8939
260 9621
260 9639
260 9715
260 9949
261 354
261 401
261 640
261 707
261 721
261 751
261 814
261 2182
261 2248
261 2696
261 3132
261 4228
261 4483
261 4688
261 4842
261 5231
261 5275
261 5342
261 5389
261 5721
261 7001
261 7057
261 7599
261 7612
261 8036
261 8085
261 8297
261 8689
261 8749
261 9133
261 9143
261 9685
262 266
262 2324
262 3222
262 3692
262 3872
262 4462
262 4735
262 5040
262 5403
262 5625
262 9035
263 1025
263 1346
263 1682
263 1799
263 2007
263 2042
263 2491
263 2588
263 3283
263 3331
263 4308
263 6576
263 7842
263 9143
264 732
264 859
264 996
264 1380
264 1804
264 1878
264 2023
264 2450
264 2573
264 2753
264 3845
264 4217
264 4244
264 4308
264 4633
264 5166
264 5789
264 6086
264 6232
264 6662
264 6682
264 8090
264 8118
264 8605
264 9067
264 9793
265 500
265 786
265 1253
265 4296
265 4317
265 4741
265 4859
265 5076
265 5332
265 5358
265 5468
265 6937
265 7205
265 7340
265 8061
265 8282
265 8706
265 8834
265 8884
265 9067
265 9480
266 573
266 981
266 1112
266 2151
266 2241
266 3227
266 3988
266 4436
266 4980
266 5794
266 6535
266 6882
266 8001
266 8210
266 8433
267 893
267 929
267 1231
267 1244
267 1593
267 2020
267 2939
267 3072
267 3430
267 3505
267 3574
267 3722
267 4022
267 4192
267 4332
267 4351
267 4731
267 4956
267 4998
267 5045
267 5211
267 5238
267 5247
267 5354
267 5993
267 6157
267 6358
267 6366
267 6793
267 7034
267 7256
267 7549
267 7669
267 9181
267 9302
267 9501
267 9570
267 9688
268 634
268 768
268 992
268 1706
268 3607
268 3709
268 4796
268 4929
268 4935
268 5350
268 5944
268 6639
268 7132
268 9524
269 582
269 2470
269 2863
269 4593
269 5397
269 5414
269 5966
269 6369
269 7294
269 7386
269 7426
269 8059
269 8569
269 8768
269 9980
270 806
270 1454
270 1501
270 2097
270 2267
270 2814
270 2924
270 3047
270 3210
270 3370
270 3379
270 3931
270 3985
270 4171
270 4323
270 4354
270 4555
270 4812
270 5646
270 6140
270 7689
270 7723
270 7776
270 7845
270 8434
270 8891
270 9352
270 9482
270 9862
271 1645
271 3552
271 3760
271 3912
271 4550
271 5240
271 5819
271 6426
271 6908
271 8574
271 8722
271 8814
271 9107
271 9245
272 584
272 667
272 981
272 1709
272 2595
272 3558
272 3963
272 3966
272 5406
272 6333
272 7089
272 8014
272 8976
272 9091
272 9541
272 9773
272 9805
273 356
273 766
273 1021
273 1038
273 1071
273 1522
273 1540
273 1597
273 2069
273 2242
273 2268
273 2308
273 2487
273 2503
273 2615
273 2772
273 2874
273 2991
273 3098
273 3181
273 3485
273 3672
273 3739
273 3909
273 4123
273 4546
273 4575
273 4812
273 4870
273 5148
273 5185
273 5450
273 5549
273 6121
273 6944
273 7473
273 7773
273 8164
273 8467
273 8773
273 8914
273 9434
274 607
274 616
274 914
274 3459
274 3574
274 6038
274 8516
274 9692
274 9916
275 830
275 950
275 2146
275 3139
275 3881
275 4846
275 8294
275 8601
275 8660
275 9241
275 9973
276 317
276 1226
276 1379
276 2308
276 3775
276 3930
276 4149
276 5266
276 5305
276 5710
276 7113
276 8553
276 8845
277 792
277 944
277 1282
277 1568
277 2478
277 2826
277 2983
277 4698
277 5310
277 5648
277 6375
277 6382
277 7259
277 8071
277 9398
278 1492
278 1553
278 3308
278 3579
278 4887
278 5396
278 6862
278 7112
278 8021
278 8848
278 9038
278 9111
278 9483
278 9526
278 9853
279 949
279 1171
279 1746
279 1948
279 2198
279 2514
279 2642
279 2993
279 3250
279 3504
279 4035
279 4235
279 4665
279 4760
279 5198
279 6452
279 9489
280 1238
280 1455
280 3342
280 3581
280 3854
280 4539
280 6020
280 6256
280 6430
280 6465
280 6791
280 7369
280 7484
280 7657
280 7666
280 8580
280 9521
281 1977
281 2768
281 2951
281 3844
281 4944
281 5069
281 6146
281 6533
281 6589
281 6840
281 7618
281 8035
281 9301
282 2915
282 2929
282 3400
282 4302
282 5927
282 7261
282 7271
282 7581
282 7642
282 7867
282 8615
282 9160
283 537
283 568
283 634
283 940
283 2142
283 2729
283 3477
283 3656
283 3769
283 4014
283 4989
283 5250
283 5576
283 6206
283 9650
283 9946
284 2780
284 3009
284 3846
284 4744
284 5133
284 6206
284 6292
284 8258
285 656
285 1163
285 1500
285 2033
285 2449
285 2622
285 3130
285 3894
285 4003
285 4020
285 4087
285 4304
285 4384
285 4638
285 4734
285 5168
285 5853
285 5962
285 6440
285 6619
285 6640
285 6752
285 7048
285 7172
285 7345
285 7458
285 7965
285 7981
285 8336
285 8475
285 9335
285 9409
285 9758
286 623
286 2092
286 2162
286 2293
286 2345
286 2436
286 3405
286 3420
286 3466
286 3553
286 3651
286 4628
286 4866
286 5022
286 5144
286 5759
286 6336
286 6507
286 6545
286 6838
286 7158
286 8142
286 8948
286 9286
286 9794
287 471
287 1663
287 2144
287 2754
287 2928
287 4378
287 4804
287 4852
287 5528
287 5730
287 8337
287 8820
288 1548
288 4681
288 5282
288 5315
288 6089
288 7590
288 7604
288 8987
288 9605
288 9949
289 432
289 702
289 1713
289 3144
289 5403
289 6446
289 6581
289 7412
289 8165
289 8764
289 8795
290 769
290 777
290 1624
290 3500
290 3737
290 4420
290 4443
290 4476
290 5380
290 5566
290 7035
290 7486
290 9555
290 9804
291 1622
291 1741
291 1771
291 1964
291 2254
291 2649
291 2830
291 3165
291 3294
291 3701
291 3733
291 3827
291 4410
291 4482
291 4616
291 4733
291 4749
291 4925
291 4978
291 4990
291 5144
291 5248
291 6745
291 7451
291 8163
291 8709
291 9205
291 9702
292 708
292 1055
292 1632
292 1655
292 1780
292 1940
292 2013
292 2288
292 3649
292 3664
292 3725
292 3841
292 3922
292 4245
292 4544
292 5948
292 7259
292 8024
292 8064
292 8220
292 8356
292 8421
292 9031
293 2110
293 2851
293 2983
293 3361
293 4462
293 6135
293 7420
293 7462
293 9339
294 811
294 1105
294 1635
294 2479
294 3118
294 3934
294 4757
294 5273
294 5504
294 5695
294 6304
294 6361
294 6559
294 6571
294 6727
294 7083
294 7482
294 8089
294 8374
294 8563
294 8964
294 9048
295 1399
295 2009
295 2332
295 2864
295 2934
295 3249
295 3957
295 5015
295 5045
295 5357
295 5443
295 6572
295 7455
295 7579
295 7636
295 7669
295 8256
295 9175
295 9297
295 9430
295 9973
296 402
296 854
296 1605
296 3214
296 5913
296 6180
296 6215
296 6312
296 6418
296 6535
296 9052
297 839
297 1715
297 3084
297 4349
297 5017
297 5748
297 5756
297 6928
297 7024
297 7248
297 7278
297 7448
297 7490
297 7867
297 8453
297 9043
298 946
298 1694
298 2203
298 2444
298 2782
298 3010
298 3163
298 3999
298 4086
298 4258
298 6950
298 7035
298 7858
298 8385
298 8882
298 8970
298 9500
299 444
299 677
299 867
299 1624
299 1820
299 1833
299 2727
299 3029
299 3131
299 3349
299 3657
299 4004
299 4525
299 4556
299 5225
299 5288
299 5291
299 5375
299 5420
299 5445
299 5592
299 5774
299 5844
299 5879
299 5986
299 6401
299 6436
299 6537
299 6664
299 6866
299 6924
299 7374
299 7799
299 8094
299 8187
299 8307
299 8384
299 8573
299 9645
300 1127
300 1747
300 1756
300 2357
300 2524
300 2872
300 3006
300 3306
300 3308
300 3962
300 4091
300 4189
300 4211
300 4266
300 4857
300 4931
300 4963
300 5333
300 5788
300 5938
300 6275
300 6445
300 6667
300 7173
300 7745
300 8173
300 8401
300 8416
300 8680
300 8764
300 9260
300 9655
301 481
301 688
301 776
301 1044
301 1828
301 1956
301 3028
301 4974
301 5218
301 5973
301 6270
301 6399
301 7705
301 7957
301 8150
301 9489
302 499
302 652
302 741
302 795
302 1134
302 1752
302 1773
302 1906
302 2589
302 2702
302 2845
302 2934
302 2997
302 3489
302 3665
302 4242
302 4416
302 4561
302 5459
302 5921
302 6084
302 6319
302 8422
302 8769
302 8865
302 8936
302 9983
303 1072
303 1389
303 2170
303 2325
303 3293
303 3458
303 4023
303 4126
303 4460
303 6837
303 7372
303 7951
303 7987
303 8667
303 9444
303 9669
303 9781
304 2085
304 2506
304 3091
304 3689
304 3807
304 4843
304 5006
304 5518
304 6394
304 7426
304 7538
304 9257
304 9397
304 9424
304 9523
304 9918
304 9939
304 9979
305 584
305 1233
305 1795
305 2007
305 2275
305 3266
305 3438
305 3589
305 3606
305 4696
305 6661
305 7073
305 7794
305 8863
306 843
306 3439
306 4375
306 4433
306 4467
306 6671
306 7220
306 8184
306 8818
306 9994
307 726
307 740
307 745
307 827
307 1476
307 1585
307 1841
307 2091
307 2295
307 2302
307 2413
307 2737
307 2766
307 3435
307 3826
307 4040
307 4077
307 4118
307 4435
307 4600
307 5448
307 5803
307 6348
307 6543
307 6679
307 7089
307 7562
307 8441
307 8538
307 8699
307 8995
307 9585
307 9848
308 2044
308 3035
308 4572
308 4684
308 4801
308 4921
308 5226
308 5945
308 6268
308 6290
308 6294
308 6302
308 7165
308 7218
308 7542
308 7549
308 7550
308 7728
308 8115
308 8188
308 8735
308 9242
309 341
309 511
309 892
309 911
309 1740
309 2021
309 2386
309 2612
309 2746
309 2763
309 2919
309 3451
309 3606
309 3763
309 3769
309 4004
309 4016
309 4536
309 4662
309 5486
309 5915
309 6025
309 6180
309 6216
309 6503
309 6556
309 6893
309 7042
309 7178
309 7919
309 8152
309 8435
309 8528
309 8574
309 8997
309 9107
309 9357
310 384
310 590
310 1047
310 1481
310 1813
310 1944
310 1946
310 2083
310 2380
310 2408
310 2455
310 2507
310 3783
310 3865
310 4194
310 4837
310 5124
310 5244
310 5269
310 5575
310 5876
310 5935
310 6258
310 6379
310 6797
310 6896
310 7688
310 8211
310 8337
310 8686
310 8870
310 8999
310 9235
310 9669
310 9737
311 912
311 1873
311 1983
311 2370
311 3179
311 3610
311 4540
311 6062
311 6606
311 7118
311 8360
312 1416
312 2685
312 2948
312 6154
312 6643
312 7316
312 7383
312 7598
312 8241
312 9640
313 2139
313 2211
313 2360
313 2810
313 3145
313 3741
313 4377
313 4717
313 4916
313 6547
313 7393
314 850
314 915
314 1160
314 1175
314 1914
314 3034
314 4259
314 4604
314 5299
314 5605
314 6803
314 7326
314 7644
314 8127
314 8382
314 9057
314 9527
314 9890
314 9939
315 897
315 953
315 1063
315 1297
315 2264
315 2749
315 3445
315 3552
315 4937
315 4962
315 5255
315 5699
315 5886
315 6062
315 6387
315 6406
315 6642
315 7062
315 7249
315 8103
315 8290
315 8327
315 8362
315 8565
315 8849
315 9019
315 9148
315 9470
315 9529
315 9564
315 9881
315 9980
316 711
316 2275
316 2630
316 3110
316 3529
316 4016
316 4281
316 4868
316 5501
316 7269
316 8392
316 8615
316 8696
317 729
317 741
317 2549
317 3177
317 3646
317 5580
317 6532
317 6612
317 6709
317 7410
317 7853
317 8450
317 8826
317 9824
318 449
318 1121
318 1988
318 2012
318 3902
318 5920
318 6794
318 7450
318 8901
318 8995
318 9736
319 387
319 726
319 759
319 2163
319 2292
319 2361
319 2407
319 3313
319 3600
319 3673
319 3789
319 3979
319 4509
319 4829
319 4984
319 5187
319 5879
319 6119
319 6358
319 6901
319 7162
319 7448
319 7457
319 7485
319 7661
319 7821
319 7881
319 7890
319 8236
319 8387
319 9073
319 9074
319 9100
319 9153
319 9613
319 9668
319 9824
319 9950
319 9962
320 520
320 538
320 701
320 1535
320 1642
320 1665
320 1716
320 1883
320 2084
320 2602
320 2803
320 3538
320 3578
320 4925
320 5221
320 5297
320 5401
320 5581
320 5711
320 5863
320 7215
320 7530
320 7845
320 8605
320 9384
320 9711
321 324
321 615
321 839
321 878
321 1226
321 1868
321 1901
321 1913
321 2071
321 2231
321 2334
321 2777
321 3810
321 4322
321 4357
321 4381
321 4695
321 4790
321 4965
321 5219
321 5321
321 5859
321 6455
321 6608
321 6759
321 6994
321 7183
321 7282
321 7322
321 7387
321 7665
321 7719
321 8063
321 8403
321 8707
321 8756
321 8787
321 8820
321 9558
321 9868
321 9903
322 754
322 1201
322 1953
322 2210
322 2948
322 3120
322 3416
322 3586
322 3873
322 4223
322 5236
322 5438
322 5823
322 7154
322 7866
322 8168
322 8175
322 8296
322 9112
322 9348
322 9511
322 9549
322 9866
322 9935
323 1131
323 1334
323 1483
323 2241
323 2590
323 2682
323 2855
323 2870
323 3135
323 3715
323 3717
323 4056
323 4168
323 4369
323 4424
323 4920
323 4930
323 4990
323 4992
323 5076
323 5689
323 6113
323 6163
323 6379
323 6545
323 7097
323 7737
323 8712
323 8815
323 8868
323 9020
323 9562
323 9622
323 9908
324 839
324 1665
324 1901
324 2231
324 2268
324 2285
324 2468
324 3152
324 3403
324 4695
324 4921
324 7946
324 8026
324 8954
325 843
325 1349
325 1519
325 2006
325 2456
325 3151
325 3385
325 4648
325 5665
325 5851
325 7645
325 7874
325 7893
325 8459
325 8760
325 8934
325 9385
326 345
326 1478
326 1887
326 2189
326 2911
326 5460
326 6212
326 6966
326 8249
326 9022
326 9058
327 425
327 471
327 486
327 695
327 1187
327 1192
327 1818
327 1913
327 2058
327 2108
327 2267
327 2487
327 3070
327 3094
327 3301
327 3348
327 3418
327 3959
327 4177
327 4222
327 4720
327 4733
327 4794
327 4913
327 5254
327 5706
327 6047
327 6185
327 6306
327 6478
327 6644
327 6756
327 6817
327 6967
327 7118
327 7376
327 7905
327 8791
327 9148
327 9432
327 9595
327 9699
327 9793
327 9995
328 527
328 591
328 1937
328 2100
328 2192
328 2205
328 2310
328 2853
328 3612
328 3945
328 4074
328 4407
328 4558
328 5431
328 5801
328 6125
328 6465
328 6773
328 9294
328 9649
329 442
329 1028
329 1184
329 1415
329 1483
329 1686
329 1904
329 1975
329 2458
329 2695
329 2752
329 2990
329 3355
329 3468
329 3563
329 3639
329 4027
329 4502
329 4531
329 4821
329 4995
329 5201
329 5373
329 5750
329 6621
329 7511
329 7682
329 8907
329 9330
329 9553
329 9899
330 1091
330 1253
330 1565
330 1833
330 1935
330 2106
330 2487
330 3580
330 4041
330 4159
330 5492
330 5850
330 6225
330 6254
330 6408
330 6805
330 8029
330 8265
330 8777
330 8875
330 9309
330 9587
331 403
331 1575
331 2235
331 2764
331 2768
331 2996
331 3687
331 3752
331 4323
331 4667
331 5379
331 6503
331 7217
331 7915
331 7969
331 8440
331 9147
331 9861
332 1043
332 1545
332 1877
332 1957
332 2577
332 2937
332 3418
332 3619
332 3793
332 3913
332 4347
332 4448
332 4507
332 4775
332 5306
332 5417
332 5488
332 5632
332 6157
332 7615
332 8379
332 8446
332 8553
332 8981
332 9267
332 9678
333 761
333 1564
333 1645
333 2555
333 2730
333 3070
333 5055
333 5776
333 6549
333 6632
333 9010
333 9969
334 1372
334 1521
334 1876
334 2407
334 2440
334 2652
334 3246
334 4026
334 4274
334 4550
334 4670
334 4794
334 5025
334 5863
334 6033
334 6129
334 6197
334 6541
334 7509
334 7858
334 7907
334 8478
334 8624
334 9401
334 9446
334 9515
334 9648
334 9943
335 554
335 846
335 849
335 980
335 1233
335 1406
335 1553
335 1637
335 2229
335 2796
335 3125
335 3187
335 3381
335 3988
335 4019
335 4197
335 5116
335 5697
335 5898
335 6132
335 6178
335 6864
335 7458
335 7879
335 8233
335 8273
335 8427
335 8665
335 8789
335 9237
336 1064
336 1509
336 1548
336 4775
336 5938
336 6064
336 6281
336 6850
336 7220
336 8477
336 8624
337 744
337 1082
337 1274
337 1597
337 2114
337 2575
337 2825
337 3115
337 3714
337 4811
337 4901
337 4943
337 5200
337 5253
337 5547
337 5890
337 6650
337 6943
337 7166
337 7282
337 7481
337 8602
337 8718
337 8777
337 9001
338 867
338 2145
338 2173
338 2584
338 3494
338 3663
338 4249
338 4949
338 5929
338 6665
338 6957
338 7764
338 8088
338 8907
338 9269
338 9378
338 9413
338 9667
338 9863
339 2130
339 2341
339 2661
339 2903
339 3299
339 5659
339 6372
339 6594
339 7016
339 7382
339 7627
339 8081
339 9153
339 9304
339 9517
340 480
340 546
340 866
340 890
340 1542
340 2127
340 3029
340 3035
340 3202
340 3311
340 3935
340 5088
340 6090
340 6504
340 6630
340 7080
340 7291
340 7767
340 8237
340 8723
340 9173
340 9330
340 9789
341 451
341 576
341 1257
341 1540
341 2352
341 2551
341 5353
341 5603
341 6681
341 7406
341 7437
341 8534
341 8769
341 8901
341 8935
341 9501
341 9885
342 1055
342 1121
342 1567
342 2019
342 2111
342 2510
342 3239
342 3726
342 4726
342 5648
342 7379
342 8209
343 449
343 814
343 2517
343 3199
343 3950
343 4456
343 4640
343 5444
343 6334
343 9753
344 601
344 2250
344 3134
344 4308
344 4836
344 5264
344 6866
344 7130
344 7879
344 8116
344 8553
345 453
345 518
345 614
345 775
345 806
345 1039
345 1478
345 2037
345 2142
345 2228
345 2243
345 2296
345 2890
345 3022
345 3162
345 3807
345 3860
345 4557
345 5151
345 5239
345 5460
345 5778
345 6109
345 6196
345 6212
345 8102
345 8180
345 8843
345 9058
345 9484
345 9629
346 894
346 900
346 969
346 1113
346 1828
346 2071
346 2841
346 2851
346 3045
346 3170
346 3551
346 4323
346 4387
346 4644
346 4884
346 4892
346 4988
346 5389
346 5464
346 5545
346 6554
346 6658
346 6711
346 7021
346 7041
346 7051
346 7259
346 7336
346 7528
346 8060
346 8210
346 8397
346 9566
346 9571
346 9776
346 9994
347 1127
347 1794
347 2830
347 3862
347 3921
347 5855
347 7160
347 7172
347 7443
347 8548
347 9391
348 456
348 553
348 1575
348 1780
348 1871
348 2847
348 2908
348 3804
348 3851
348 5270
348 5912
348 7213
348 7739
348 8174
348 9060
348 9281
349 793
349 1107
349 1397
349 1511
349 1558
349 1868
349 2014
349 2890
349 3215
349 3401
349 4810
349 5488
349 6883
349 9376
350 1188
350 1345
350 2069
350 2088
350 2173
350 2472
350 2527
350 2612
350 2798
350 2813
350 2964
350 3323
350 3419
350 3827
350 4098
350 4105
350 4148
350 4304
350 4425
350 4443
350 4734
350 4752
350 4905
350 5120
350 5215
350 5547
350 5564
350 5819
350 6370
350 6461
350 6689
350 6771
350 6844
350 7125
350 7244
350 8101
350 9044
350 9098
350 9204
350 9456
350 9521
350 9715
351 906
351 953
351 1343
351 1590
351 2569
351 2706
351 3690
351 4296
351 4726
351 5738
351 6831
351 6861
351 7069
351 7506
351 7824
351 8316
351 8631
352 379
352 479
352 860
352 967
352 1366
352 1450
352 1491
352 1566
352 1578
352 1615
352 1667
352 1736
352 1815
352 2147
352 2383
352 2725
352 2966
352 2983
352 3129
352 3228
352 3416
352 3594
352 3685
352 3770
352 4017
352 4162
352 4164
352 4493
352 4545
352 4775
352 4800
352 5743
352 5814
352 5987
352 6226
352 6346
352 6458
352 6484
352 6846
352 7406
352 7576
352 7693
352 7735
352 7775
352 8154
352 8203
352 8452
352 8819
353 1287
353 1343
353 2577
353 3883
353 5719
353 7361
353 7540
353 7571
353 7845
353 7906
353 9084
353 9526
354 401
354 754
354 1312
354 1451
354 1786
354 1802
354 2275
354 2696
354 2978
354 3132
354 3138
354 3531
354 4301
354 4791
354 4929
354 4989
354 5342
354 5568
354 5751
354 6285
354 6484
354 6723
354 6745
354 6782
354 7403
354 7542
354 7545
354 7612
354 8036
354 8292
354 8297
354 8343
354 8393
354 8689
354 8841
354 9162
354 9302
354 9375
354 9392
354 9595
354 9654
354 9805
355 1096
355 1737
355 3659
355 3676
355 4324
355 4775
355 6292
355 6293
355 6917
355 8472
355 8729
355 9032
355 9657
355 9973
356 618
356 747
356 1018
356 1153
356 1166
356 1211
356 1452
356 1494
356 1641
356 1646
356 1701
356 1759
356 2666
356 3050
356 3159
356 3364
356 3551
356 3835
356 4117
356 4350
356 4487
356 4615
356 4752
356 5018
356 5483
356 5516
356 5730
356 5865
356 6569
356 6915
356 7121
356 7648
356 7906
356 8096
356 8720
356 8749
356 8928
356 8946
356 9238
356 9482
356 9848
357 409
357 433
357 780
357 790
357 1466
357 1657
357 2883
357 5601
357 6090
357 6132
357 6578
357 6762
357 7181
357 7285
357 7510
357 8467
357 9070
358 634
358 1441
358 2301
358 2470
358 3549
358 4006
358 4017
358 4283
358 5208
358 5371
358 6972
358 7180
358 9209
358 9640
358 9701
359 2476
359 2754
359 6839
359 6842
359 8400
359 8648
359 9253
359 9953
360 1660
360 2002
360 2189
360 2306
360 2371
360 2875
360 2954
360 3292
360 3619
360 4043
360 4230
360 4600
360 4790
360 5280
360 5378
360 6646
360 6959
360 8232
360 8273
360 8405
360 8516
360 8990
361 1110
361 1609
361 2227
361 3821
361 4281
361 4703
361 5326
361 5498
361 5649
361 8065
361 8317
361 8425
361 8791
361 8974
361 9078
362 1008
362 1226
362 1599
362 2173
362 2927
362 3240
362 4536
362 4998
362 5004
362 5169
362 5493
362 5790
362 6035
362 6980
362 7745
362 9817
363 964
363 2063
363 3140
363 3369
363 4262
363 4702
363 5348
363 6267
363 7237
363 8913
363 9098
363 9783
363 9901
364 1623
364 2724
364 3008
364 3893
364 4219
364 4533
364 6228
364 7394
364 7886
364 9816
365 582
365 1602
365 2216
365 3723
365 5073
365 5527
365 5540
365 8757
365 9559
365 9898
366 669
366 692
366 1286
366 2206
366 2946
366 3013
366 4086
366 4208
366 4253
366 4976
366 6149
366 6257
366 6888
366 6922
366 7609
366 7989
366 8904
367 1508
367 1954
367 2172
367 2345
367 2989
367 4162
367 4904
367 5199
367 6188
367 7009
367 7532
367 8146
367 8502
367 8752
368 829
368 1233
368 1466
368 1812
368 1815
368 2173
368 2913
368 3442
368 3602
368 5054
368 5538
368 5608
368 5665
368 5782
368 6426
368 6466
368 6726
368 7002
368 8715
368 9623
368 9721
368 9976
369 375
369 388
369 785
369 843
369 1089
369 1248
369 1351
369 2740
369 2876
369 3040
369 3090
369 3247
369 3571
369 3893
369 4152
369 4412
369 4656
369 5298
369 5435
369 5501
369 5527
369 5646
369 5711
369 6369
369 6664
369 6737
369 7103
369 7569
369 8145
369 8189
369 8323
369 8469
369 8843
369 8983
369 9016
369 9271
369 9584
369 9680
369 9788
370 1067
370 1693
370 2467
370 4057
370 4641
370 4771
370 5021
370 5246
370 5961
370 7359
370 7853
370 7922
370 7980
370 8163
370 8310
370 8720
370 9287
370 9597
371 921
371 1810
371 2250
371 3599
371 4628
371 6397
371 6399
371 6568
371 6730
371 6981
371 7037
371 7793
371 8306
371 8779
371 8937
371 9017
371 9331
371 9351
371 9804
371 9904
371 9913
372 1490
372 2727
372 3083
372 3415
372 5704
372 5969
372 5995
372 6066
372 6150
372 6378
372 6404
372 6591
372 6697
372 7097
372 7404
372 7731
372 8284
372 9117
372 9281
373 946
373 2186
373 2247
373 2561
373 2965
373 5061
373 5755
373 5930
373 6007
373 6392
373 6490
373 6516
373 6629
373 6644
373 6902
373 7473
373 7481
373 7672
373 8827
374 985
374 1470
374 2290
374 2727
374 2979
374 4247
374 4251
374 6277
374 6378
374 6697
374 7731
374 8026
374 8467
374 9338
375 467
375 702
375 943
375 2006
375 2570
375 2660
375 4039
375 6192
375 7383
376 994
376 1097
376 2547
376 3648
376 3823
376 4323
376 4624
376 4956
376 5366
376 5843
376 6009
376 6201
376 6377
376 7988
376 8351
376 8459
376 9801
376 9917
377 640
377 1045
377 2195
377 2953
377 4276
377 4321
377 5238
377 6086
377 7276
377 7371
377 7393
377 8047
377 8223
377 8228
378 644
378 1683
378 2324
378 2380
378 2469
378 2489
378 3540
378 5672
378 7127
378 7298
378 8710
379 514
379 541
379 1824
379 1952
379 1996
379 2295
379 2343
379 2646
379 2763
379 3151
379 3260
379 3761
379 4183
379 4243
379 5455
379 5468
379 5759
379 5829
379 6493
379 6685
379 6730
379 7001
379 7737
379 7967
379 7968
379 8226
379 8304
379 9057
379 9692
380 1182
380 1646
380 2551
380 2827
380 3307
380 3339
380 4555
380 4682
380 5358
380 5524
380 5723
380 5801
380 6020
380 6669
380 7143
380 7484
380 7725
380 7934
380 8627
380 8791
380 9724
381 994
381 1416
381 1986
381 2047
381 2271
381 2754
381 2972
381 3478
381 3751
381 3851
381 6431
381 6766
381 7490
381 9007
381 9022
381 9693
381 9938
382 642
382 969
382 1395
382 1842
382 3660
382 3869
382 4476
382 4539
382 6489
382 6933
382 7630
382 9234
382 9681
383 1967
383 3320
383 4082
383 4393
383 4490
383 5114
383 6074
383 7518
383 8742
383 9090
383 9150
383 9616
384 2129
384 2239
384 2899
384 3244
384 3741
384 4305
384 4611
384 5169
384 6117
384 8167
384 8956
384 9486
385 1087
385 1589
385 1903
385 2367
385 2928
385 4037
385 4127
385 4393
385 4804
385 5039
385 5081
385 5692
385 6236
385 6833
385 8820
386 429
386 1859
386 2091
386 2642
386 3153
386 3162
386 3186
386 4376
386 4405
386 5227
386 6075
386 6984
386 7092
386 8101
387 2392
387 2701
387 2827
387 3417
387 3599
387 4193
387 6119
387 7485
387 8702
387 9450
388 529
388 598
388 1152
388 1254
388 1395
388 1418
388 1569
388 1982
388 2072
388 2115
388 2487
388 2875
388 3641
388 3662
388 4260
388 4308
388 4720
388 4722
388 4956
388 5459
388 5646
388 6313
388 6322
388 6429
388 6723
388 7446
388 7698
388 7703
388 7959
388 8161
388 8233
388 8361
388 8371
388 8515
388 8745
388 9030
388 9109
388 9113
388 9171
388 9315
389 863
389 1005
389 1596
389 2292
389 2966
389 3600
389 3639
389 3928
389 4109
389 4241
389 4677
389 6601
389 6752
389 7283
389 7293
389 7461
389 8996
389 9779
390 709
390 795
390 804
390 1093
390 1341
390 1361
390 2034
390 2360
390 3106
390 3190
390 3831
390 3946
390 4418
390 4484
390 4544
390 5190
390 5222
390 5439
390 6042
390 6089
390 6188
390 6372
390 6545
390 6796
390 6878
390 6895
390 7039
390 7283
390 7285
390 7419
390 7539
390 8681
390 9012
390 9619
391 1133
391 2155
391 2266
391 3753
391 4441
391 4592
391 4902
391 5200
391 5668
391 5727
391 6420
391 7175
391 8442
391 9051
391 9289
391 9639
392 765
392 1654
392 2078
392 2168
392 3559
392 3610
392 5867
392 6312
392 7068
392 8672
393 418
393 924
393 1320
393 1492
393 1621
393 1811
393 2636
393 3154
393 4434
393 5176
393 5310
393 6084
393 6524
393 6535
393 6997
393 7154
393 7276
393 7854
393 7927
393 8174
393 8345
393 8716
394 472
394 1362
394 1694
394 1809
394 2720
394 3223
394 3240
394 4860
394 4941
394 7540
394 7989
394 8120
394 8302
395 1427
395 2414
395 3289
395 3972
395 4756
395 5095
395 5300
395 5404
395 5790
395 5881
395 7429
395 7508
395 9037
395 9623
396 1368
396 1809
396 3021
396 3788
396 3944
396 4843
396 5561
396 8016
396 9342
397 523
397 692
397 1879
397 2007
397 2146
397 2571
397 3547
397 4944
397 4947
397 5296
397 5829
397 7553
397 7944
397 8318
397 8401
397 8627
397 9261
397 9509
397 9578
398 710
398 975
398 1745
398 1816
398 1892
398 3063
398 4061
398 5049
398 5429
398 5609
398 5810
398 7197
398 7382
398 8419
398 8743
399 1770
399 2007
399 3794
399 4270
399 4388
399 4795
399 4862
399 5628
399 6766
399 6941
399 8044
399 8911
399 9846
400 1126
400 1245
400 1989
400 2280
400 3452
400 3480
400 4430
400 5172
400 5544
400 6153
400 6306
400 7031
400 7291
401 474
401 1869
401 2546
401 2554
401 3132
401 4166
401 5015
401 5342
401 7612
401 8806
401 8896
401 9233
401 9593
402 786
402 2033
402 2274
402 2434
402 2488
402 3913
402 4466
402 4749
402 6554
402 6800
402 7685
402 7890
402 8020
402 8184
402 8659
402 9234
402 9349
402 9639
402 9971
402 9996
403 434
403 756
403 1486
403 1626
403 1708
403 2148
403 2276
403 2292
403 2557
403 2573
403 2589
403 3013
403 3116
403 3240
403 3592
403 3636
403 3660
403 3714
403 4585
403 4847
403 5452
403 6061
403 6094
403 6346
403 6435
403 6997
403 7106
403 7138
403 7261
403 7962
403 8625
403 9052
403 9841
403 9844
403 9923
404 1169
404 2344
404 2888
404 3442
404 3947
404 4638
404 5337
404 5350
404 5886
404 6084
404 6273
404 6660
404 6815
404 6987
404 7102
404 7788
404 8392
404 9344
404 9481
404 9682
404 9907
405 476
405 2069
405 3047
405 4816
405 5820
405 5970
405 6068
405 6814
405 7714
405 7946
405 8116
405 9678
406 1985
406 2024
406 3407
406 3647
406 3781
406 4163
406 4256
406 4580
406 4853
406 5068
406 5081
406 7331
406 8440
406 8688
407 865
407 1339
407 1774
407 3032
407 3135
407 3304
407 3671
407 3802
407 5874
407 6059
407 6106
407 6283
407 6510
407 7894
407 8195
407 8719
408 800
408 1742
408 2119
408 4926
408 5028
408 5095
408 5382
408 5402
408 6740
408 7584
408 8151
408 9394
408 9415
408 9453
408 9507
408 9595
408 9621
409 1406
409 1909
409 3169
409 3472
409 5518
409 5742
409 5873
409 5900
409 6130
409 6659
409 7424
409 7922
410 649
410 703
410 1051
410 1220
410 1633
410 2090
410 2400
410 2401
410 2873
410 3024
410 3711
410 3991
410 4365
410 4528
410 4608
410 5315
410 5413
410 5587
410 6045
410 6178
410 6182
410 8073
410 8432
410 9971
411 1162
411 1359
411 2105
411 2241
411 3353
411 3561
411 3842
411 4274
411 4775
411 5491
411 5644
411 5969
411 6203
411 6315
411 6355
411 6619
411 7564
411 7635
411 7688
411 8392
411 8765
411 8857
412 1339
412 1940
412 2041
412 4018
412 4033
412 4721
412 4848
412 5783
412 5922
412 5927
412 7085
412 7279
412 8156
412 8787
412 9522
412 9537
412 9866
413 1317
413 1422
413 3488
413 3510
413 4304
413 4665
413 5168
413 6770
413 7405
413 7661
413 9672
414 1970
414 2916
414 3920
414 4170
414 5704
414 6678
414 6898
414 7017
414 7133
414 7235
414 7372
414 7797
414 8029
414 8059
414 8346
415 1529
415 1835
415 2900
415 3299
415 4389
415 5169
415 5650
415 5950
415 6857
415 7451
415 7944
415 8891
415 9631
416 795
416 934
416 1097
416 1229
416 1455
416 2049
416 2125
416 2460
416 4519
416 6017
416 6609
416 7140
416 7230
416 9339
416 9542
417 1418
417 2432
417 2500
417 2761
417 2977
417 3068
417 3444
417 4187
417 5729
417 6326
417 9083
418 1740
418 1806
418 2221
418 2241
418 2458
418 2479
418 3253
418 3353
418 3464
418 4035
418 4217
418 4765
418 5129
418 5499
418 6255
418 6336
418 6919
418 7011
418 7244
418 7292
418 7834
418 7845
418 8326
418 8368
418 8971
418 9527
418 9686
419 854
419 1671
419 3873
419 5373
419 5676
419 5833
419 6667
419 7301
419 8413
419 8674
419 8839
419 9088
419 9370
419 9857
420 1513
420 2262
420 2683
420 3317
420 3721
420 5189
420 5615
420 6152
420 6207
420 8733
420 9799
421 935
421 1108
421 1373
421 1444
421 2260
421 2329
421 3396
421 3618
421 4180
421 4655
421 4705
421 6791
421 8166
421 8898
422 2165
422 2274
422 2497
422 3197
422 3747
422 3824
422 4120
422 5514
422 6042
422 6693
422 8001
422 8844
422 9590
422 9943
423 640
423 846
423 1579
423 1705
423 2380
423 2437
423 2951
423 4028
423 4191
423 4604
423 5088
423 5522
423 7438
423 8004
423 8703
423 8822
423 9260
423 9345
424 721
424 1003
424 1155
424 1781
424 2091
424 2350
424 3398
424 4462
424 5225
424 5675
424 5997
424 6137
424 6535
424 8472
424 8861
424 9995
425 448
425 938
425 3547
425 4301
425 4817
425 5508
425 5652
425 5698
425 7030
425 9831
426 708
426 2080
426 4010
426 4229
426 4263
426 4436
426 5224
426 7122
426 7135
426 7850
426 8779
426 9839
427 755
427 1187
427 2491
427 3307
427 4987
427 6574
427 7674
427 8272
427 8453
427 8786
427 9080
427 9231
427 9647
428 497
428 676
428 1545
428 1567
428 1613
428 1823
428 1828
428 2685
428 2799
428 3240
428 3295
428 3952
428 4398
428 4507
428 4541
428 4797
428 4998
428 5163
428 5792
428 5907
428 6155
428 6361
428 7009
428 7018
428 7418
428 8392
428 8682
428 9215
429 2370
429 3002
429 3153
429 3618
429 4082
429 4376
429 4405
429 4587
429 5182
429 5499
429 5665
429 5702
429 7389
429 7604
429 7999
429 8018
429 8101
429 9061
429 9180
429 9529
429 9629
429 9908
430 1294
430 1473
430 1570
430 2220
430 3477
430 4427
430 4722
430 5153
430 6331
430 6416
430 6923
430 7402
430 7424
430 7486
430 7552
430 8412
430 8897
430 9320
431 1312
431 1944
431 1967
431 3179
431 3370
431 3690
431 4267
431 4867
431 5738
431 7069
431 7618
431 7824
431 8647
431 8676
431 9111
432 582
432 702
432 1824
432 2848
432 3307
432 3494
432 4204
432 4441
432 4812
432 6816
432 8165
432 8715
432 8764
432 8795
432 9091
432 9654
433 980
433 1198
433 1809
433 2149
433 2271
433 2417
433 2576
433 2942
433 3052
433 3213
433 3534
433 3795
433 4221
433 4416
433 4812
433 4939
433 4993
433 5241
433 5833
433 6089
433 6853
433 6937
433 7169
433 7230
433 7336
433 8045
433 8073
433 9438
433 9582
433 9794
433 9966
434 797
434 1087
434 1445
434 2268
434 3119
434 4543
434 4706
434 5656
434 5779
434 6139
434 6269
434 6740
434 8081
434 9320
435 1905
435 4072
435 4704
435 4841
435 6127
435 6216
435 6393
435 7724
436 476
436 834
436 853
436 2899
436 6306
436 6715
436 7527
436 7700
436 8273
436 8406
436 9449
437 921
437 1051
437 1699
437 2142
437 2251
437 2560
437 2908
437 3233
437 3651
437 4424
437 5193
437 5797
437 6472
437 6484
437 6562
437 6599
437 7302
437 7915
437 7970
437 8007
437 8462
437 9179
437 9306
438 796
438 1119
438 2170
438 2306
438 8531
438 8860
438 9449
438 9993
439 893
439 1332
439 1858
439 2076
439 2598
439 2937
439 3339
439 3357
439 3486
439 4152
439 4402
439 4767
439 5418
439 6360
439 6936
439 7403
439 7514
439 8256
439 8388
439 8907
439 9393
440 711
440 937
440 1331
440 1407
440 1935
440 3390
440 3632
440 3819
440 3852
440 3873
440 4152
440 5145
440 5501
440 5568
440 6047
440 6251
440 6523
440 7513
440 8178
440 8215
441 586
441 608
441 801
441 985
441 1005
441 1008
441 1048
441 1118
441 1467
441 2044
441 3274
441 3557
441 3622
441 3970
441 4188
441 4461
441 4623
441 4689
441 5050
441 5396
441 5576
441 5659
441 5717
441 6006
441 6216
441 6315
441 6436
441 6492
441 6655
441 7259
441 7795
441 8348
441 8358
441 8593
441 8703
441 8871
441 9464
442 1691
442 2727
442 3355
442 4303
442 4501
442 6139
442 6184
442 6201
442 8447
442 8567
442 8568
443 610
443 1290
443 1396
443 1531
443 1683
443 1685
443 1749
443 1849
443 2049
443 2534
443 2538
443 3348
443 3779
443 3964
443 4235
443 4299
443 4611
443 4878
443 4987
443 4992
443 5965
443 6002
443 6386
443 6641
443 6929
443 6960
443 7151
443 7588
443 7934
443 8462
443 8485
443 8645
443 9164
443 9328
443 9369
443 9943
443 9974
444 867
444 1100
444 2459
444 2675
444 3063
444 3657
444 3927
444 4050
444 4059
444 4192
444 5365
444 5445
444 5703
444 5847
444 5851
444 5981
444 5986
444 6062
444 6920
444 6924
444 7212
444 7946
444 8350
444 8384
444 8841
444 8945
444 9066
444 9488
444 9644
444 9730
445 903
445 1545
445 1776
445 1882
445 2324
445 2329
445 3651
445 3878
445 4186
445 4689
445 5082
445 6259
445 6320
445 6444
445 7675
445 7902
445 8166
445 8763
445 9132
445 9208
445 9526
445 9698
446 575
446 880
446 2011
446 2206
446 2398
446 2486
446 2960
446 3408
446 3413
446 4390
446 4870
446 5103
446 6867
446 6975
446 7015
446 7951
446 8794
446 8986
446 9012
446 9813
446 9892
446 9918
447 2090
447 2585
447 2946
447 3355
447 3835
447 5048
447 5497
447 5593
447 5813
447 5826
447 6380
447 7142
447 7485
447 8454
447 9561
448 512
448 1006
448 1747
448 2063
448 2699
448 3547
448 3912
448 4301
448 4917
448 5246
448 5508
448 5698
448 5927
448 6080
448 6869
448 6995
448 7724
448 8492
448 8872
448 9682
449 725
449 1121
449 2052
449 2597
449 3388
449 3410
449 3429
449 3486
449 6375
449 6543
449 7203
449 7450
449 7739
449 8776
449 8901
449 9255
450 777
450 788
450 850
450 1008
450 1200
450 1317
450 1359
450 1829
450 2308
450 2320
450 2400
450 2676
450 3171
450 3252
450 3410
450 3550
450 4448
450 4568
450 4758
450 4839
450 5097
450 5718
450 5858
450 6152
450 6201
450 7256
450 7930
450 8014
450 8323
450 8642
450 8716
450 8868
450 8892
450 9430
450 9624
450 9643
450 9882
451 541
451 1069
451 1540
451 1777
451 2352
451 4011
451 4150
451 4881
451 5117
451 5725
451 5983
451 6170
451 7126
451 7406
451 7787
451 9506
451 9554
451 9709
452 1338
452 4549
452 6602
452 6937
452 7008
452 7304
452 7465
452 8320
452 9171
452 9241
452 9949
453 668
453 1302
453 1421
453 2012
453 2745
453 3618
453 3693
453 4992
453 6776
453 8599
453 8976
453 9959
454 1564
454 1803
454 1834
454 2374
454 3195
454 3584
454 3652
454 3847
454 4400
454 7228
454 7479
454 8250
454 8351
454 9093
454 9765
454 9804
455 2189
455 2498
455 2648
455 4616
455 5497
455 5884
455 6011
455 7083
455 9015
456 905
456 1154
456 1247
456 1448
456 2695
456 4000
456 4238
456 4736
456 5285
456 5935
456 6647
456 7523
456 7611
456 9503
456 9673
457 821
457 945
457 1869
457 2217
457 2601
457 2654
457 3539
457 4191
457 5485
457 6456
457 6464
457 7494
457 8005
457 8082
457 8759
457 8890
457 9941
458 720
458 1136
458 1577
458 2430
458 2581
458 4057
458 4496
458 5610
458 6508
458 6649
458 8332
459 504
459 942
459 1186
459 1295
459 2501
459 2954
459 5154
459 5890
459 6601
459 7401
459 8223
459 8310
459 8946
460 1758
460 2207
460 2896
460 2983
460 3608
460 5447
460 6580
460 6841
460 7173
460 7457
461 1555
461 2025
461 2469
461 3426
461 4081
461 4899
461 5945
461 6171
461 6466
461 6928
461 8819
461 9331
461 9377
461 9394
462 2390
462 3790
462 4141
462 5036
462 5514
462 6404
462 6468
462 6741
462 7633
462 9804
463 1936
463 3332
463 3617
463 4123
463 6571
463 6733
463 7221
463 9256
464 551
464 906
464 1287
464 1464
464 2934
464 3394
464 3454
464 5747
464 5873
464 6854
464 8067
464 8167
464 8799
464 9623
465 2230
465 2472
465 3268
465 4103
465 4204
465 4651
465 5118
465 6042
465 6437
465 6804
465 7914
465 8429
465 8504
465 8824
465 9355
466 1470
466 1496
466 2627
466 3201
466 3390
466 3540
466 3641
466 3941
466 4030
466 5242
466 5286
466 6951
466 7602
466 9180
466 9350
467 1051
467 1502
467 2128
467 2286
467 2555
467 2687
467 2726
467 3407
467 3938
467 4128
467 4652
467 4924
467 5458
467 8114
467 8391
467 8586
467 9400
468 2328
468 2756
468 2856
468 2973
468 3002
468 3161
468 4326
468 4474
468 5090
468 5462
468 5764
468 6312
468 6442
468 7984
468 8718
468 8834
468 9536
468 9712
468 9743
469 927
469 952
469 2108
469 2510
469 4755
469 4828
469 4891
469 5368
469 5510
469 5537
469 6259
469 9120
470 564
470 948
470 995
470 2317
470 3779
470 4165
470 5199
470 6433
470 8390
470 8839
470 9289
471 567
471 769
471 911
471 1417
471 2929
471 3904
471 4579
471 4582
471 4988
471 6131
471 6182
471 6285
471 6665
471 8533
471 8722
471 9037
471 9179
471 9208
471 9694
472 918
472 1356
472 1755
472 2156
472 3354
472 3780
472 4553
472 6674
472 7554
472 7831
472 9180
472 9444
472 9533
472 9663
473 1767
473 2755
473 3419
473 4103
473 4401
473 4441
473 4470
473 4589
473 4812
473 5076
473 5440
473 6455
473 6558
473 6670
473 7048
473 7227
473 7921
473 9881
474 1877
474 2098
474 3838
474 3847
474 4115
474 4389
474 4712
474 4766
474 5652
474 6499
474 6522
474 6570
474 6933
474 7463
474 7607
474 8014
475 735
475 809
475 829
475 923
475 1057
475 1319
475 2270
475 2335
475 2845
475 2884
475 2947
475 3618
475 3673
475 3775
475 3783
475 4305
475 4570
475 5079
475 5495
475 5508
475 6280
475 6372
475 6722
475 6841
475 6852
475 6966
475 7274
475 8247
475 8638
475 8720
475 8917
475 9227
475 9467
475 9842
475 9974
476 834
476 1061
476 1098
476 1504
476 2794
476 2895
476 3097
476 3436
476 4162
476 4279
476 5580
476 6275
476 6306
476 8236
476 8396
476 8485
476 8755
476 9038
476 9848
476 9978
477 1747
477 2127
477 2151
477 2841
477 3196
477 4067
477 4209
477 4973
477 5723
477 7512
477 7527
477 8323
477 8794
477 9382
478 1090
478 1551
478 1839
478 2046
478 2117
478 2130
478 2243
478 2287
478 2294
478 3174
478 3463
478 4000
478 4048
478 4207
478 4418
478 4609
478 4758
478 5043
478 5057
478 6297
478 6922
478 7141
478 7343
478 7441
478 8138
478 8261
478 8956
478 9144
478 9583
478 9664
478 9707
478 9915
478 9929
478 9945
479 640
479 846
479 1614
479 2056
479 2820
479 3556
479 4604
479 5088
479 5269
479 5437
479 6529
479 6937
479 7005
479 7483
479 7850
479 7853
479 7980
479 8004
479 8122
479 8163
479 8349
479 8682
479 8706
479 9689
480 504
480 1090
480 1107
480 1844
480 1851
480 1961
480 2805
480 3311
480 3559
480 3874
480 6504
480 6710
480 9278
481 953
481 1033
481 2052
481 2884
481 3587
481 4005
481 4204
481 4794
481 5761
481 5861
481 5973
481 6399
481 6632
481 6989
481 7261
481 7285
481 7458
481 7957
481 8150
481 8581
481 8625
481 8989
481 9160
481 9489
481 9897
482 1501
482 2648
482 2965
482 2972
482 3098
482 3605
482 4749
482 5394
482 6504
482 8388
482 9691
483 1215
483 2179
483 2680
483 3146
483 3209
483 3682
483 3790
483 3912
483 3953
483 4824
483 5084
483 5186
483 6007
483 6364
483 6539
483 6582
483 7010
483 7164
483 7310
483 7370
483 7721
483 7922
483 8127
483 8481
483 8483
483 8880
483 9308
483 9386
484 1566
484 1740
484 1890
484 2222
484 2496
484 2554
484 2672
484 2731
484 4328
484 4651
484 5291
484 5303
484 5553
484 5597
484 5761
484 6174
484 6233
484 7070
484 7113
484 7622
484 7657
484 7815
484 7875
484 8040
484 8134
484 9160
484 9340
484 9662
484 9893
485 547
485 647
485 716
485 920
485 1149
485 1318
485 1319
485 1523
485 1767
485 1873
485 1882
485 2628
485 2967
485 3011
485 3205
485 3305
485 3361
485 4294
485 4423
485 4541
485 4865
485 5022
485 5058
485 5733
485 5921
485 6186
485 7028
485 7238
485 7334
485 7561
485 7712
485 8058
485 8103
485 8496
485 8576
485 8621
485 8740
485 8765
485 8894
485 9204
485 9748
485 9750
485 9897
486 816
486 1576
486 2176
486 2206
486 3097
486 3822
486 5231
486 5323
486 5465
486 6371
486 8286
486 9231
487 592
487 859
487 1046
487 1232
487 1649
487 2431
487 2460
487 2788
487 3721
487 4536
487 4842
487 5574
487 6419
487 6570
487 6910
487 7493
487 7840
487 8319
488 1846
488 1971
488 2448
488 2963
488 5652
488 6232
488 6554
488 6556
488 6585
488 6967
488 7061
488 8739
488 9851
488 9976
489 548
489 868
489 1953
489 2894
489 3458
489 6246
489 6352
489 6691
489 7993
489 8071
489 8512
489 8639
489 8887
489 9917
489 9997
490 777
490 2021
490 2386
490 2757
490 3150
490 3204
490 3662
490 4641
490 6302
490 7048
490 7329
490 8321
490 8461
490 9359
490 9441
491 1091
491 1104
491 1121
491 1658
491 3200
491 3210
491 5980
491 6404
491 7592
491 8176
491 8929
492 2601
492 2833
492 4060
492 4291
492 5197
492 6568
492 6938
492 6951
492 8376
492 9650
493 1473
493 1570
493 2281
493 3641
493 4259
493 4427
493 4722
493 6119
493 6707
493 7649
493 9056
493 9899
494 504
494 514
494 943
494 982
494 1475
494 3923
494 4046
494 4711
494 5166
494 7200
494 7700
494 8881
494 9815
495 834
495 1295
495 1597
495 1800
495 2077
495 3490
495 4193
495 4837
495 5002
495 5968
495 6025
495 6411
495 6689
495 6878
495 7285
495 8132
495 8303
495 8965
495 9798
495 9944
495 9977
496 986
496 1312
496 2051
496 2664
496 3370
496 4031
496 4288
496 4329
496 4956
496 6259
496 6938
496 7111
496 8084
496 8900
496 8982
496 9264
497 3023
497 4151
497 4303
497 4984
497 5257
497 5290
497 5873
497 5908
497 5979
497 5992
497 6259
497 6293
497 7526
497 7716
497 8233
497 9364
497 9650
498 625
498 937
498 2889
498 4172
498 5184
498 5416
498 6133
498 6401
498 7285
498 7713
498 8033
498 8364
498 8514
498 8798
498 8918
498 9054
498 9152
499 639
499 1248
499 2611
499 2697
499 3623
499 3932
499 4218
499 5067
499 5321
499 6247
499 7038
499 7056
499 7575
499 8999
499 9548
500 745
500 1946
500 3258
500 3331
500 4391
500 5149
500 5372
500 5782
500 5805
500 6400
500 8085
500 8318
500 8440
500 9592
501 825
501 1227
501 1718
501 2842
501 3748
501 3775
501 4263
501 4703
501 4884
501 5781
501 6573
501 8103
501 8287
501 8777
501 9209
501 9596
502 961
502 1503
502 1628
502 2625
502 3359
502 4429
502 5116
502 6104
502 6748
502 7037
502 7773
502 9575
503 904
503 1669
503 2368
503 3758
503 4916
503 4917
503 5138
503 5339
503 6424
503 7166
503 8490
503 8849
503 9073
504 569
504 2241
504 4046
504 5077
504 7200
504 7555
504 8506
504 8881
504 9381
504 9815
505 1336
505 1495
505 3527
505 4055
505 4767
505 4890
505 7145
505 7187
505 8329
505 8720
505 9517
505 9987
506 1837
506 2173
506 3963
506 4014
506 4696
506 4800
506 4890
506 5887
506 6700
506 7268
506 7523
506 7866
506 9199
506 9482
507 853
507 1753
507 2059
507 3028
507 3618
507 3693
507 4002
507 4750
507 4934
507 8668
507 9259
508 519
508 946
508 951
508 1604
508 1991
508 2851
508 3544
508 3996
508 4293
508 4845
508 5553
508 6003
508 6442
508 7341
508 8087
508 8782
508 9088
508 9115
508 9483
508 9740
509 569
509 3243
509 3281
509 3876
509 3962
509 5013
509 5235
509 5257
509 6970
509 7817
509 7840
509 8172
509 8740
510 523
510 730
510 1003
510 1826
510 2626
510 3924
510 4533
510 4817
510 4911
510 5488
510 6139
510 6225
510 6686
510 6857
510 9772
511 1798
511 4414
511 4875
511 5172
511 5269
511 6553
511 6574
511 6682
511 7996
511 8316
511 9234
511 9663
511 9700
512 680
512 751
512 1278
512 2327
512 2450
512 3041
512 3216
512 3547
512 3727
512 4301
512 4424
512 4655
512 5433
512 5508
512 5586
512 5698
512 6941
512 7328
512 7666
512 7836
512 8036
512 8872
512 9301
512 9682
512 9897
513 1455
513 1748
513 2418
513 2555
513 2998
513 5449
513 5664
513 6499
513 6986
513 7014
513 7148
513 7515
513 9231
514 632
514 1468
514 1575
514 1804
514 2176
514 2728
514 3523
514 4046
514 4918
514 5077
514 5633
514 5759
514 5811
514 6482
514 6848
514 7200
514 7670
514 8285
514 8881
514 9025
514 9815
515 1289
515 1648
515 1830
515 1889
515 2290
515 2333
515 3054
515 3085
515 3670
515 3813
515 3919
515 4273
515 5291
515 5396
515 5422
515 5631
515 5782
515 6085
515 6542
515 6909
515 7655
515 7662
515 7710
515 7785
515 8061
515 8471
515 9681
516 1660
516 1911
516 2189
516 2306
516 2739
516 2754
516 6579
516 7240
516 7449
516 8990
516 9497
516 9921
517 1759
517 2025
517 2763
517 3408
517 3494
517 3738
517 4349
517 4686
517 5433
517 5446
517 5655
517 6800
517 7584
517 8034
517 9356
517 9779
518 2237
518 3645
518 3852
518 5667
518 5933
518 6237
518 7119
518 7429
518 7954
518 9612
518 9936
519 1329
519 1445
519 1550
519 2050
519 2598
519 3666
519 3849
519 4456
519 5047
519 5061
519 5388
519 5964
519 6285
519 6748
519 7324
519 7914
519 8134
519 8588
519 9944
520 924
520 1425
520 1566
520 1665
520 1716
520 1732
520 1766
520 1873
520 1883
520 2227
520 2304
520 2602
520 2737
520 2852
520 3060
520 3278
520 3538
520 4060
520 4104
520 4222
520 4925
520 5208
520 5682
520 5702
520 6143
520 6319
520 6818
520 6940
520 6958
520 6976
520 7253
520 7472
520 7771
520 7799
520 8169
520 8437
520 8574
520 8916
520 9384
520 9497
521 581
521 1594
521 4185
521 4223
521 5396
521 6001
521 6345
521 6693
521 8621
522 972
522 1211
522 2261
522 2621
522 2903
522 2940
522 3711
522 4426
522 4667
522 5523
522 5786
522 5888
522 6508
522 7107
522 7589
522 9662
523 533
523 556
523 602
523 837
523 974
523 1080
523 1213
523 1241
523 2623
523 2894
523 5098
523 5412
523 5505
523 5846
523 5920
523 7149
523 8104
523 9679
524 1640
524 1989
524 2010
524 2546
524 2673
524 2703
524 2843
524 3083
524 3734
524 4345
524 4847
524 5452
524 6706
524 7102
524 7168
524 7228
524 7985
524 8898
524 9338
524 9509
524 9731
525 786
525 939
525 987
525 1485
525 2383
525 2498
525 3709
525 3790
525 3985
525 4784
525 5358
525 5468
525 5644
525 6056
525 6489
525 6901
525 8005
525 8233
525 8971
525 9113
525 9480
525 9968
526 625
526 767
526 1180
526 1387
526 1395
526 1435
526 1712
526 1759
526 1882
526 1947
526 2412
526 2571
526 2635
526 2854
526 3139
526 3183
526 3331
526 3562
526 3691
526 4012
526 4081
526 4245
526 4679
526 4907
526 5260
526 5784
526 6110
526 6359
526 6580
526 6692
526 7047
526 7150
526 7452
526 7863
526 7934
526 7936
526 8551
526 9587
526 9598
527 1747
527 2127
527 2841
527 3640
527 4021
527 5575
527 6395
527 7344
527 8794
528 999
528 2486
528 2651
528 3503
528 4189
528 5169
528 6916
528 7328
528 8175
528 9773
529 599
529 612
529 1982
529 2318
529 4551
529 5502
529 6228
529 7007
529 7852
529 8397
529 9037
529 9315
530 2018
530 2353
530 3676
530 4048
530 4234
530 5185
530 5598
530 7473
530 7889
530 8023
530 8190
530 8257
530 9060
531 830
531 1239
531 3571
531 5282
531 5591
531 5978
531 6511
531 7258
531 7358
531 7477
531 7552
531 9033
531 9303
532 609
532 715
532 1060
532 1780
532 1941
532 2249
532 2620
532 5888
532 6236
532 6450
532 7762
532 8051
532 8427
532 8782
532 9240
532 9264
533 1479
533 1837
533 3358
533 4113
533 4577
533 5928
533 6130
533 7245
533 8435
533 9742
534 838
534 949
534 1266
534 2911
534 3351
534 3679
534 4170
534 4293
534 4495
534 5210
534 6243
534 7460
534 8952
534 9546
534 9722
534 9895
535 907
535 1211
535 2159
535 2455
535 2790
535 2903
535 3488
535 3495
535 4667
535 5079
535 5186
535 5587
535 5679
535 5703
535 5786
535 5888
535 6558
535 6632
535 7035
535 7107
535 8251
535 8749
535 9749
536 711
536 774
536 884
536 953
536 1158
536 1726
536 3669
536 3902
536 5478
536 6423
536 6601
536 8800
536 9153
537 940
537 1014
537 1181
537 1590
537 4480
537 4989
537 5707
537 6046
537 6692
537 6988
537 7531
537 9098
537 9650
537 9745
537 9752
537 9946
538 732
538 1100
538 1239
538 1580
538 1619
538 2401
538 3318
538 3995
538 4447
538 5169
538 5398
538 5429
538 5956
538 6193
538 6528
538 6862
538 7067
538 7957
538 8282
538 8313
538 8885
538 9012
538 9522
538 9755
539 1175
539 2164
539 2828
539 3977
539 5718
539 7887
539 7998
539 8831
539 9070
539 9346
539 9800
540 724
540 973
540 1183
540 1233
540 1617
540 1663
540 1744
540 2444
540 2467
540 2519
540 2566
540 2623
540 2715
540 2777
540 2855
540 2922
540 3253
540 3859
540 3876
540 5423
540 5934
540 6091
540 6398
540 7728
540 8670
540 8782
540 8970
541 542
541 702
541 758
541 827
541 1325
541 1635
541 1709
541 1872
541 2122
541 2175
541 2319
541 2957
541 3553
541 3836
541 3959
541 4146
541 4214
541 4411
541 5257
541 5797
541 5919
541 5988
541 6021
541 6140
541 6208
541 7112
541 7490
541 7771
541 8678
541 8742
541 8814
541 9000
541 9022
541 9195
541 9686
541 9949
542 2175
542 3146
542 3425
542 3525
542 3860
542 4991
542 5076
542 6089
542 6208
542 7073
542 8675
542 8678
542 9000
542 9022
543 701
543 754
543 863
543 920
543 1069
543 1321
543 1824
543 2856
543 3439
543 3577
543 3804
543 6432
543 8042
543 8138
543 8901
543 9256
543 9561
543 9580
544 944
544 954
544 2398
544 4256
544 5100
544 5932
544 6467
544 6984
544 8293
544 8350
544 8563
544 9073
544 9715
544 9871
544 9890
545 1019
545 1804
545 1811
545 1884
545 2068
545 2087
545 3052
545 4055
545 4511
545 5551
545 6388
545 6445
545 7015
545 7437
545 7800
545 8128
545 8151
545 8835
545 8878
545 8986
545 9841
545 9977
546 677
546 765
546 1131
546 1167
546 1559
546 1618
546 1703
546 2296
546 2334
546 2723
546 2888
546 3116
546 3117
546 3210
546 3211
546 3362
546 3406
546 3569
546 3585
546 4228
546 4376
546 4675
546 4701
546 4737
546 4815
546 4876
546 4954
546 5273
546 6159
546 6247
546 6255
546 6414
546 6960
546 6984
546 7219
546 7334
546 7526
546 7838
546 8107
546 8369
546 8607
546 8670
546 8684
546 8930
547 682
547 802
547 855
547 1126
547 1176
547 3361
547 4865
547 4926
547 7293
547 7495
547 8103
547 9185
548 599
548 868
548 1529
548 1849
548 2039
548 2655
548 2894
548 2974
548 3044
548 3719
548 4577
548 4845
548 5454
548 6506
548 7914
548 7993
548 8083
548 8387
548 8887
548 9117
548 9856
549 719
549 1923
549 1972
549 3397
549 4065
549 4145
549 4473
549 5110
549 5268
549 6525
549 6818
549 8237
549 8307
549 8539
550 1324
550 1529
550 2962
550 3184
550 3322
550 3952
550 4159
550 4697
550 5446
550 5846
550 6181
550 6352
550 6941
550 7919
550 8369
550 8663
550 8832
550 9270
550 9445
550 9610
550 9702
550 9728
550 9973
551 1600
551 1935
551 3795
551 4374
551 5425
551 5510
551 6153
551 6889
551 8800
551 9093
551 9164
552 1473
552 1980
552 3038
552 3571
552 3588
552 3607
552 4417
552 4728
552 4890
552 7976
552 8513
552 9637
552 9739
553 946
553 1057
553 1774
553 1871
553 2750
553 3657
553 4103
553 4428
553 4554
553 4596
553 5402
553 5409
553 6286
553 7434
553 7510
553 7914
553 8071
553 8174
553 9637
553 9812
554 721
554 877
554 1435
554 1713
554 1874
554 2035
554 2600
554 3159
554 3860
554 4246
554 4604
554 5366
554 5879
554 6099
554 6191
554 6568
554 6904
554 7320
554 7869
554 8504
554 8701
554 8797
554 8979
554 9142
554 9218
554 9353
554 9568
555 955
555 1359
555 2542
555 2887
555 3053
555 3422
555 4135
555 4151
555 4854
555 5117
555 5461
555 7752
555 7805
555 7826
555 7899
555 8540
555 9456
556 934
556 4068
556 5846
556 5873
556 5910
556 7855
556 8222
556 8827
556 9229
556 9289
556 9844
557 594
557 1165
557 1454
557 1510
557 1544
557 1553
557 1695
557 2047
557 2141
557 2757
557 2918
557 3112
557 3280
557 3387
557 3573
557 3913
557 3989
557 4637
557 5003
557 5125
557 5169
557 5591
557 5780
557 6012
557 6690
557 6732
557 6796
557 6864
557 7357
557 7559
557 7567
557 8003
557 8316
557 8619
557 9193
557 9415
557 9781
557 9786
557 9984
558 977
558 1196
558 1262
558 1501
558 1654
558 2168
558 2728
558 2735
558 2820
558 3095
558 3401
558 5709
558 6986
558 7068
558 8097
558 8193
558 8436
558 8672
559 2399
559 3187
559 3265
559 3321
559 3637
559 4159
559 4775
559 5412
559 7186
559 8071
559 9639
560 725
560 1260
560 1426
560 1647
560 1809
560 2049
560 3742
560 3970
560 6063
560 6718
560 9538
561 799
561 1691
561 4391
561 4775
561 5403
561 5634
561 5656
561 8428
561 9359
561 9501
562 1042
562 2678
562 3977
562 4363
562 5740
562 7808
562 8662
562 9561
562 9862
563 761
563 2514
563 2555
563 6094
563 8461
563 8500
564 1050
564 1095
564 1105
564 1145
564 1224
564 1451
564 1739
564 2388
564 3023
564 3030
564 3224
564 3442
564 3849
564 4158
564 4169
564 4468
564 4567
564 4732
564 5112
564 5286
564 5294
564 5549
564 5612
564 6575
564 7184
564 8346
564 9145
564 9298
564 9708
564 9843
565 1601
565 1623
565 2823
565 2951
565 3280
565 3410
565 3825
565 3876
565 4019
565 4128
565 4235
565 4283
565 5162
565 5220
565 5663
565 5871
565 5955
565 7365
565 7552
565 7774
565 7823
565 7871
565 7904
565 8658
565 9042
565 9100
565 9372
565 9791
565 9811
566 1051
566 2002
566 2110
566 2221
566 2710
566 3640
566 4147
566 4479
566 5027
566 5150
566 6303
566 6390
566 7115
566 7184
566 8393
566 9224
567 1055
567 1091
567 1247
567 1652
567 1885
567 1985
567 2175
567 2232
567 2583
567 2682
567 2802
567 2817
567 2958
567 3152
567 3383
567 3540
567 3713
567 4159
567 4434
567 4817
567 5012
567 5391
567 6567
567 6863
567 7031
567 7131
567 7426
567 7605
567 7716
567 7843
567 7853
567 8334
567 9484
567 9607
567 9901
568 1544
568 3030
568 3847
568 4026
568 5086
568 5214
568 6553
568 6558
568 6751
568 7769
568 7963
569 2546
569 2579
569 3191
569 3243
569 3281
569 3565
569 4012
569 4298
569 4441
569 4465
569 4586
569 4729
569 4865
569 5257
569 5315
569 6034
569 6112
569 6891
569 6941
569 7707
569 8317
569 9066
569 9317
569 9656
569 9855
570 1068
570 2191
570 2469
570 3404
570 4490
570 4668
570 5514
570 6312
570 6337
570 6830
570 6982
570 7690
570 7752
570 8440
570 8709
570 9206
570 9247
570 9574
570 9642
571 1911
571 2203
571 2416
571 2908
571 3332
571 5067
571 5251
571 5615
571 5805
571 5895
571 6343
571 7343
571 8118
571 8832
571 9856
572 638
572 903
572 1531
572 2201
572 3652
572 4102
572 4920
572 5100
572 5245
572 5289
572 5326
572 5596
572 6103
572 7208
572 7571
572 7872
572 8542
572 9426
572 9510
572 9774
573 731
573 1073
573 1513
573 1523
573 1530
573 2079
573 2439
573 2517
573 2913
573 3079
573 3145
573 3208
573 3778
573 3798
573 3807
573 3832
573 3928
573 4099
573 4111
573 4598
573 4755
573 4822
573 5011
573 5681
573 5951
573 6207
573 6291
573 6962
573 7029
573 7258
573 7396
573 7881
573 8401
573 8643
573 8810
573 8884
573 9180
573 9326
573 9830
573 9985
574 2033
574 2504
574 3137
574 3305
574 3555
574 3686
574 3859
574 4731
574 6795
574 8062
574 8372
574 8797
575 612
575 880
575 2676
575 2883
575 2960
575 3821
575 4086
575 4173
575 4662
575 4723
575 5936
575 6252
575 6749
575 7128
575 7153
575 7442
575 7667
575 8325
575 9012
575 9244
575 9663
575 9892
575 9985
576 969
576 1022
576 2772
576 3590
576 3722
576 4433
576 4997
576 5409
576 5635
576 5951
576 6085
576 6306
576 6735
576 6940
576 7371
576 7774
576 9093
577 1584
577 1714
577 1781
577 2656
577 2886
577 3348
577 3432
577 3500
577 3559
577 5576
577 6001
577 6344
577 7683
578 1670
578 2032
578 2675
578 3466
578 3500
578 5731
578 6985
578 7442
578 8079
578 9073
578 9175
579 681
579 772
579 1159
579 4077
579 4372
579 4644
579 5666
579 6819
579 6917
579 6998
579 9238
579 9332
579 9918
579 9994
580 977
580 1040
580 1811
580 2239
580 2872
580 3177
580 5136
580 5188
580 5295
580 5949
580 6621
580 6863
580 7589
580 8386
580 9377
580 9855
581 1594
581 2011
581 2237
581 3389
581 3481
581 3493
581 4339
581 4493
581 4502
581 4506
581 4671
581 5579
581 5983
581 6001
581 6188
581 6345
581 6593
581 7468
581 8341
581 9027
581 9653
581 9705
581 9807
582 846
582 1326
582 1347
582 1395
582 2470
582 2611
582 2799
582 3525
582 3559
582 4278
582 5037
582 5397
582 5470
582 6492
582 7105
582 7221
582 7386
582 8140
582 8768
582 9582
582 9804
582 9876
583 1320
583 1684
583 2121
583 4068
583 7346
583 8136
583 8688
583 9800
584 974
584 991
584 1358
584 1696
584 2011
584 2268
584 2423
584 2965
584 3354
584 3404
584 3456
584 4014
584 4278
584 4472
584 4564
584 4660
584 4798
584 5317
584 5374
584 5496
584 6034
584 6706
584 6884
584 7134
584 7733
584 7980
584 8481
584 9002
584 9021
584 9233
584 9303
584 9438
585 2584
585 3244
585 3556
585 4259
585 4677
585 4838
585 5417
585 5610
585 5629
585 6074
585 7236
585 7285
585 7946
585 9852
586 1959
586 2225
586 2256
586 2272
586 3169
586 4334
586 4398
586 4577
586 5630
586 7980
586 8208
586 8759
587 1233
587 2011
587 2198
587 2246
587 2325
587 2753
587 3580
587 3777
587 6101
587 6623
587 7735
587 8535
587 8808
587 9059
587 9640
588 2039
588 2137
588 2385
588 4691
588 4933
588 7610
588 7752
588 7973
588 8874
589 913
589 2451
589 3856
589 5418
589 5611
589 5643
589 6026
589 6065
589 6212
589 7102
589 7669
589 7837
589 7961
589 9001
589 9179
590 849
590 1126
590 1198
590 2259
590 2591
590 3211
590 3618
590 3760
590 3967
590 4009
590 4296
590 4402
590 4654
590 4716
590 4964
590 5300
590 5754
590 6320
590 6653
590 6679
590 6736
590 8400
590 9172
590 9204
590 9212
590 9397
590 9801
591 1304
591 2318
591 3532
591 4074
591 6355
591 6773
591 7198
591 7455
591 8656
591 8951
591 9146
592 1828
592 3012
592 3141
592 4845
592 5139
592 6187
592 6543
592 8820
592 8862
592 9377
592 9481
593 800
593 817
593 1119
593 1599
593 1619
593 2060
593 2503
593 3548
593 4043
593 4642
593 5053
593 5639
593 5747
593 5829
593 6170
593 6354
593 7335
593 7541
593 7789
593 8033
593 8598
593 8701
593 9326
593 9403
593 9692
594 847
594 2405
594 3718
594 3913
594 4637
594 5125
594 6856
594 6949
594 8619
594 9415
594 9670
595 784
595 1455
595 2034
595 2116
595 3217
595 3428
595 3605
595 3646
595 4026
595 4590
595 4943
595 5693
595 5858
595 6078
595 6650
595 6758
595 6765
595 6914
595 7018
595 7167
595 7211
595 7323
595 7356
595 7560
595 7570
595 7819
595 8435
595 8578
596 676
596 1519
596 1973
596 2752
596 2808
596 4811
596 5136
596 6503
596 7290
596 7308
596 7404
596 8233
596 8356
596 8435
596 8827
596 9091
596 9631
596 9929
597 1148
597 1548
597 1667
597 1913
597 2189
597 3197
597 3906
597 4057
597 4346
597 5246
597 5978
597 6653
597 8132
597 8681
598 3924
598 4129
598 4626
598 4702
598 4765
598 4813
598 5102
598 5266
598 5535
598 6091
598 6641
598 6747
598 7935
598 9262
599 763
599 920
599 954
599 974
599 1246
599 1320
599 1447
599 3273
599 3403
599 3408
599 4073
599 4146
599 4552
599 4877
599 4886
599 5051
599 5198
599 5318
599 5750
599 5815
599 5853
599 6109
599 6491
599 6533
599 6707
599 7200
599 7299
599 7319
599 7726
599 8704
599 8778
599 9363
599 9493
599 9649
599 9760
599 9787
600 603
600 969
600 1074
600 2418
600 2460
600 3970
600 5436
600 6994
600 7161
600 8921
600 9489
600 9985
601 2133
601 2551
601 2956
601 3284
601 4033
601 4781
601 5605
601 5976
601 5991
601 6196
601 6318
601 6929
601 7108
601 7367
601 8569
601 8649
601 9538
602 1767
602 3002
602 4474
602 4491
602 5315
602 5764
602 5949
602 7592
602 8718
602 8933
603 1276
603 1290
603 1719
603 2418
603 3020
603 3291
603 5043
603 5436
603 5929
603 6557
603 6909
603 6994
603 7161
603 8231
603 9116
603 9593
603 9805
603 9840
604 1720
604 2268
604 2520
604 2837
604 3351
604 3528
604 3619
604 4539
604 5220
604 5465
604 5558
604 6213
604 6590
604 6993
604 7345
604 7539
604 7795
604 8240
604 8923
604 9450
605 1526
605 2725
605 4794
605 5106
605 5282
605 5315
605 5973
605 6970
605 7030
605 7357
605 8373
605 9526
605 9531
605 9949
606 2929
606 3834
606 4680
606 5877
606 5916
606 7429
606 7581
606 7642
606 7867
606 7986
606 8970
606 8994
606 9895
607 678
607 1820
607 2183
607 2890
607 3205
607 4331
607 4638
607 4658
607 4762
607 5626
607 5786
607 5984
607 6005
607 6048
607 6114
607 6147
607 6593
607 6627
607 7344
607 7694
607 7980
607 8380
607 9557
607 9613
607 9846
608 2044
608 2692
608 2888
608 3274
608 3568
608 4531
608 5050
608 6492
609 1261
609 1718
609 1941
609 2962
609 3058
609 3317
609 3366
609 5524
609 5820
609 6450
609 7639
609 7669
609 9236
610 1284
610 1741
610 2551
610 2865
610 2870
610 3081
610 3593
610 3968
610 4140
610 4179
610 4538
610 4562
610 4917
610 4952
610 6290
610 6924
610 7486
610 7585
610 7684
610 7889
610 8771
610 8993
610 9187
610 9765
610 9835
611 898
611 1317
611 2203
611 3978
611 5813
611 6172
611 6185
611 6355
611 7095
611 7360
611 7781
611 7817
611 9152
611 9613
612 780
612 1092
612 1155
612 1812
612 2052
612 4081
612 5055
612 5225
612 5622
612 5716
612 5997
612 6137
612 6168
612 6372
612 6535
612 7387
612 8588
612 9541
613 793
613 1115
613 2058
613 3324
613 3997
613 4262
613 4283
613 5910
613 5936
613 6480
613 7399
614 963
614 1254
614 2263
614 2356
614 2713
614 2749
614 3330
614 4906
614 4998
614 5569
614 7440
614 7757
614 8157
614 8205
614 8223
614 8666
614 8781
615 2299
615 2784
615 3109
615 3140
615 3375
615 4908
615 4961
615 6503
615 6834
615 7314
615 8133
615 8982
615 9694
616 1198
616 1214
616 1286
616 1692
616 2275
616 2546
616 2731
616 3126
616 3228
616 3703
616 3707
616 5056
616 5076
616 5865
616 7847
616 7887
616 8275
616 9076
617 660
617 1279
617 2835
617 4439
617 4680
617 4773
617 4813
617 4854
617 5058
617 5406
617 6033
617 6665
617 7066
617 8811
617 9327
617 9340
617 9778
617 9801
618 1107
618 1253
618 1480
618 2755
618 3082
618 3339
618 3342
618 4235
618 4401
618 4691
618 4949
618 5076
618 5749
618 6010
618 6949
618 7227
618 8290
618 9375
619 1844
619 2350
619 2470
619 5285
619 5470
619 5828
619 7386
619 7751
619 8001
619 8140
619 8432
619 8768
620 1532
620 1736
620 3564
620 4387
620 5256
620 5270
620 6195
620 6861
620 7887
620 9225
620 9455
620 9635
621 765
621 1289
621 2755
621 3715
621 5076
621 5728
621 6457
621 7921
621 8074
621 8768
621 9375
621 9538
621 9902
622 751
622 764
622 2024
622 2925
622 5594
622 5829
622 5979
622 7387
622 8455
622 8821
622 9167
622 9611
622 9824
623 1462
623 1607
623 2293
623 2436
623 2925
623 3258
623 3466
623 4966
623 6245
623 7548
623 8018
623 8583
623 8948
623 9026
623 9450
624 799
624 984
624 1247
624 2803
624 2897
624 3804
624 4329
624 4745
624 4979
624 6784
624 7180
624 7867
624 9084
624 9359
624 9501
624 9566
624 9839
625 937
625 1022
625 1593
625 1702
625 2079
625 2847
625 2872
625 2918
625 3372
625 3529
625 3615
625 3991
625 4192
625 5101
625 6756
625 6986
625 7446
625 7713
625 8033
625 8732
625 8823
625 9152
625 9258
625 9637
626 674
626 766
626 928
626 2202
626 3478
626 4707
626 6406
626 8670
626 8995
626 9750
627 665
627 1067
627 1656
627 1853
627 3176
627 3432
627 6397
627 7510
627 7840
627 7886
627 8738
627 8921
627 9734
628 1645
628 2091
628 3100
628 3119
628 4249
628 4490
628 5202
628 7100
628 7803
628 9679
629 853
629 898
629 1667
629 2714
629 2844
629 3495
629 3972
629 7595
629 8269
629 9339
629 9416
629 9635
629 9677
629 9746
629 9969
630 687
630 779
630 812
630 967
630 1443
630 1638
630 1713
630 1875
630 1964
630 3018
630 3812
630 3895
630 4869
630 4971
630 4979
630 5010
630 5040
630 5131
630 5199
630 5246
630 5340
630 5914
630 5940
630 6671
630 6679
630 6726
630 7087
630 7214
630 7232
630 7377
630 7489
630 7831
630 7966
630 8302
630 8738
630 9004
630 9092
630 9157
630 9500
631 2503
631 2622
631 2925
631 2986
631 3032
631 3109
631 3533
631 4379
631 4792
631 5598
631 5678
631 7190
631 7401
631 8562
631 9806
632 1345
632 1401
632 4843
632 4846
632 5031
632 5464
632 5468
632 5530
632 6465
632 7556
632 9316
632 9356
632 9387
632 9779
632 9938
633 863
633 922
633 1183
633 1683
633 1717
633 3055
633 4923
633 5318
633 5548
633 6108
633 6878
633 8736
633 9291
633 9973
634 1278
634 1532
634 2712
634 2756
634 3643
634 5944
634 8828
634 9995
635 1102
635 2171
635 2624
635 2911
635 3346
635 4353
635 5771
635 6230
635 6770
635 7115
635 8039
635 8834
635 9750
635 9876
636 1747
636 2027
636 5073
636 6432
636 6632
636 7265
636 8633
636 8649
636 8769
636 9250
636 9484
637 2768
637 2883
637 3397
637 4862
637 6307
637 6463
637 6489
637 6744
637 6845
637 8256
637 8986
637 9630
637 9968
638 780
638 845
638 2246
638 2260
638 2794
638 3011
638 3839
638 4410
638 5174
638 5834
638 6198
638 6246
638 6592
638 7384
638 7509
638 8640
638 8931
638 9101
638 9380
639 3233
639 4006
639 5257
639 6949
639 7169
639 8518
639 8677
639 9366
640 722
640 735
640 846
640 1426
640 1451
640 2004
640 2114
640 2375
640 2419
640 2610
640 3055
640 3139
640 3314
640 4166
640 4604
640 4724
640 4842
640 5049
640 5088
640 5322
640 5432
640 5490
640 5735
640 6234
640 6551
640 7012
640 7594
640 8004
640 8090
640 8163
640 8393
640 8463
640 8703
640 8825
640 9060
640 9127
641 1705
641 1719
641 1764
641 3090
641 3120
641 3187
641 3374
641 4296
641 4308
641 4521
641 4951
641 5893
641 6394
641 6466
641 6698
641 6875
641 7709
641 7832
641 9859
642 684
642 734
642 973
642 1369
642 2930
642 3000
642 4219
642 4223
642 6949
642 8243
642 9504
642 9584
642 9790
643 865
643 3130
643 3771
643 3895
643 5620
643 5785
643 6431
643 7144
643 7241
643 7894
644 861
644 887
644 1209
644 1216
644 1447
644 2099
644 2125
644 2264
644 3019
644 3215
644 3379
644 3659
644 3715
644 3898
644 3931
644 5326
644 5338
644 5370
644 5700
644 6246
644 6385
644 6579
644 6834
644 6976
644 6980
644 7028
644 7030
644 7262
644 7768
644 8285
644 8371
644 8956
644 9095
644 9402
644 9561
644 9702
645 680
645 828
645 1321
645 1329
645 2265
645 2434
645 2437
645 2858
645 4466
645 6268
645 6800
645 7890
645 8660
645 9118
645 9707
645 9996
646 783
646 1203
646 1617
646 1861
646 2001
646 2091
646 2659
646 2763
646 3639
646 3951
646 4032
646 4257
646 4312
646 4551
646 4753
646 5051
646 5291
646 5440
646 5500
646 5932
646 6055
646 6349
646 7537
646 7652
646 8653
646 9185
646 9239
646 9338
646 9340
646 9624
646 9661
646 9937
647 821
647 2143
647 3715
647 3925
647 5808
647 5877
647 6001
647 6360
647 6871
647 7423
647 7776
647 8057
647 8111
647 8521
647 8617
647 8634
647 9197
647 9211
647 9652
648 1355
648 3335
648 3526
648 3958
648 4181
648 4588
648 6282
648 6293
648 6793
648 7217
648 7778
648 7858
648 8157
648 9344
648 9484
649 1198
649 1220
649 2069
649 2373
649 2401
649 3627
649 3711
649 3827
649 4329
649 4524
649 4528
649 6572
649 6649
649 7596
649 8923
649 9971
650 1722
650 1909
650 2586
650 3169
650 4150
650 4334
650 5873
650 7939
650 9129
651 3788
651 4138
651 4153
651 6047
651 6624
651 8001
651 8477
651 8523
651 8761
651 8813
651 8844
651 9590
652 820
652 1241
652 1302
652 1991
652 2211
652 2404
652 3587
652 3780
652 4134
652 4408
652 4567
652 4603
652 4887
652 5312
652 5337
652 5489
652 5622
652 6014
652 6050
652 6547
652 6716
652 6927
652 7004
652 7540
652 7789
652 7866
652 7953
652 8021
652 8057
652 8122
652 8240
652 8496
652 8777
652 9047
652 9422
652 9427
652 9645
653 1331
653 1815
653 2175
653 3289
653 4799
653 5953
653 6031
653 6234
653 6527
653 6544
653 6609
653 7442
653 8289
654 722
654 1057
654 1428
654 1933
654 1974
654 2566
654 3419
654 4773
654 5300
654 5521
654 5893
654 6326
654 7027
654 7276
654 7419
654 7464
654 8147
654 8636
654 9183
654 9434
655 2647
655 2807
655 3765
655 4217
655 5310
655 5488
655 6637
655 7895
655 8053
655 9841
656 1294
656 1473
656 1570
656 2369
656 2540
656 4427
656 5835
656 6665
656 6707
656 6730
656 7393
656 9908
657 1164
657 1266
657 1767
657 1830
657 3295
657 3838
657 4413
657 4626
657 4818
657 5095
657 5912
657 6613
657 7226
657 8306
657 8859
657 9997
658 1812
658 1881
658 2151
658 2242
658 2680
658 2685
658 3047
658 3896
658 5157
658 5173
658 6083
658 6157
658 6542
658 7030
658 7683
658 9281
659 2171
659 3403
659 3552
659 4607
659 4813
659 5734
659 5758
659 6051
659 8270
659 9049
659 9146
659 9487
659 9630
660 1408
660 1418
660 1880
660 3144
660 4026
660 4170
660 4704
660 4764
660 5369
660 5749
660 6632
660 7029
660 8984
660 9480
661 935
661 1581
661 2196
661 2412
661 2830
661 4203
661 4605
661 4649
661 6237
661 6710
662 671
662 1180
662 1304
662 1710
662 2528
662 2948
662 3039
662 3593
662 3968
662 4017
662 4282
662 4322
662 4469
662 4545
662 5351
662 5471
662 5577
662 5658
662 5672
662 6093
662 6145
662 6444
662 6511
662 6546
662 6564
662 6836
662 7193
662 7878
662 7970
662 8642
662 8884
662 9079
662 9607
663 1802
663 3541
663 4053
663 4386
663 4760
663 5399
663 6312
663 7950
663 8138
663 8980
664 751
664 998
664 1034
664 1520
664 1634
664 1760
664 2515
664 4903
664 5724
664 5883
664 6545
664 6705
664 8427
664 8704
664 9403
664 9827
664 9940
665 699
665 1158
665 1347
665 1402
665 2271
665 2800
665 3999
665 5361
665 5860
665 6055
665 6768
665 6986
665 7086
665 7510
665 7650
665 8577
665 9343
666 1470
666 1638
666 2285
666 2573
666 2613
666 2680
666 2772
666 2980
666 4008
666 5186
666 5273
666 5604
666 5687
666 6362
666 7063
666 7476
666 7980
666 8127
666 8187
666 8371
666 8735
666 9001
666 9045
667 1711
667 2728
667 3413
667 3567
667 3619
667 4259
667 4411
667 5805
667 8976
667 9091
667 9203
667 9541
667 9780
668 1643
668 1856
668 2877
668 2973
668 3637
668 3784
668 3847
668 4380
668 4733
668 5302
668 5630
668 6158
668 6486
668 6769
668 8806
669 916
669 5183
669 5746
669 6991
669 7629
669 9996
670 780
670 962
670 1348
670 1438
670 1513
670 2872
670 3972
670 6010
670 7099
670 9153
670 9226
670 9847
670 9864
671 1054
671 1645
671 1748
671 2584
671 2811
671 2916
671 3167
671 3346
671 3380
671 4011
671 4463
671 4520
671 5095
671 5370
671 5516
671 5975
671 6276
671 7042
671 7045
671 7069
671 7125
671 7217
671 7298
671 7805
671 8418
671 8486
671 8529
671 8881
671 9354
672 678
672 784
672 824
672 837
672 1117
672 1178
672 1229
672 1802
672 1848
672 2020
672 2051
672 2483
672 2717
672 3087
672 3453
672 3752
672 3943
672 3953
672 4035
672 4139
672 4312
672 4720
672 4867
672 4895
672 5462
672 5529
672 5672
672 5904
672 6641
672 6943
672 7245
672 7461
672 7584
672 7608
672 7654
672 7985
672 8156
672 9737
673 776
673 1119
673 1847
673 2190
673 2312
673 2323
673 3308
673 4846
673 5400
673 5875
673 6417
673 7265
673 7933
673 9217
673 9857
674 1467
674 2399
674 3492
674 3564
674 4176
674 5130
674 5524
674 5668
674 6409
674 6414
674 6581
674 6985
674 8207
674 8574
674 9312
675 1562
675 3040
675 4070
675 5066
675 5181
675 5224
675 5702
675 6407
675 6454
675 7999
675 8825
675 9127
675 9234
675 9841
676 1413
676 1886
676 2371
676 2415
676 2488
676 2570
676 2612
676 2627
676 2857
676 3902
676 5734
676 6016
676 6117
676 6618
676 6984
676 8341
676 8695
676 8797
676 8946
677 686
677 729
677 1011
677 1120
677 1167
677 1559
677 1579
677 1673
677 2045
677 2236
677 3211
677 3558
677 4030
677 4129
677 4176
677 4228
677 4651
677 4773
677 5240
677 5579
677 5730
677 6159
677 6569
677 6937
677 7219
677 7287
677 7294
677 7464
677 7513
677 7527
677 7628
677 8024
677 8082
677 8190
677 8500
677 9119
677 9380
677 9674
677 9724
678 824
678 1229
678 1709
678 2013
678 2113
678 2883
678 4035
678 5529
678 6139
678 6150
678 6385
678 6888
678 6943
678 7245
678 7723
678 7954
678 8104
678 8156
678 9378
679 1495
679 3130
679 3917
679 4086
679 4185
679 6619
679 6717
679 7102
679 7696
679 7710
679 9979
680 3331
680 3709
680 5704
680 5841
680 5895
680 6602
680 6604
680 6660
680 6781
680 7544
680 8858
680 8878
680 8945
680 9160
681 1221
681 1504
681 2819
681 5095
681 5777
681 6217
681 6286
681 6971
681 8390
682 2836
682 3584
682 4004
682 4525
682 5090
682 5207
682 5891
682 6786
682 9013
682 9424
683 1263
683 1320
683 1870
683 4130
683 7091
683 7552
683 7844
683 8674
683 9796
683 9800
684 699
684 921
684 1377
684 1571
684 2727
684 3179
684 5126
684 5146
684 5980
684 6606
684 6625
684 7092
684 7695
684 8360
684 9410
685 1606
685 1801
685 2489
685 2560
685 2584
685 5048
685 7685
685 7774
685 9239
686 703
686 1406
686 1546
686 2413
686 4036
686 4102
686 4947
686 5789
686 6164
686 6533
686 6592
686 7302
686 8059
686 8136
686 8894
687 812
687 855
687 1743
687 1875
687 2393
687 2470
687 2908
687 3232
687 3467
687 3588
687 3940
687 4913
687 6726
687 7983
687 8302
687 9515
688 725
688 765
688 3665
688 4424
688 5872
688 6950
688 7680
688 8024
688 8239
688 8643
688 8728
688 8849
688 9746
688 9904
689 1011
689 1236
689 1400
689 1709
689 2178
689 2481
689 2877
689 2924
689 3099
689 3206
689 3240
689 3505
689 3517
689 4430
689 4551
689 6058
689 6486
689 7495
689 8757
689 8813
689 8829
689 9129
690 774
690 2704
690 3107
690 3408
690 3468
690 4295
690 4462
690 4533
690 5008
690 5081
690 5174
690 5333
690 5632
690 6323
690 6796
690 7678
690 8409
690 8578
690 9660
690 9899
691 865
691 1878
691 3192
691 3717
691 5741
691 6312
691 7087
691 8609
691 9254
692 846
692 1026
692 1679
692 2203
692 2571
692 3215
692 3599
692 3771
692 4395
692 5370
692 5399
692 6295
692 6519
692 7141
692 7804
692 8216
692 8530
692 8627
692 9098
692 9737
693 1239
693 1355
693 1774
693 2070
693 2106
693 2321
693 2406
693 2608
693 2725
693 2728
693 2741
693 3090
693 3216
693 4178
693 4326
693 4331
693 4407
693 4474
693 4770
693 5020
693 5222
693 5285
693 5445
693 5463
693 5839
693 5916
693 6192
693 6193
693 6218
693 6468
693 7405
693 8023
693 8634
693 8963
693 9064
693 9309
693 9604
694 929
694 1052
694 1402
694 1602
694 1796
694 2313
694 2870
694 3208
694 3507
694 3685
694 4168
694 5620
694 6242
694 6267
694 6445
694 6982
694 7059
694 7384
694 7872
694 8541
694 8730
694 8867
695 952
695 1192
695 2369
695 3380
695 3418
695 4092
695 4772
695 5254
695 6478
695 9063
695 9793
696 1634
696 2816
696 4685
696 4935
696 5246
696 5503
696 5579
696 6666
696 7033
696 7049
696 8412
696 8650
696 8851
697 758
697 1022
697 1270
697 1778
697 2007
697 2362
697 2368
697 2988
697 3208
697 3215
697 3365
697 3892
697 4006
697 4775
697 6120
697 6186
697 6382
697 6475
697 6916
697 7141
697 7625
697 7685
697 7893
697 7898
697 7918
697 7923
697 8075
697 8332
697 8456
697 8912
697 9199
697 9285
697 9398
697 9901
698 1078
698 1127
698 2277
698 2672
698 2911
698 2992
698 3051
698 5306
698 7918
698 8670
699 2340
699 2415
699 2776
699 4623
699 4717
699 4811
699 5283
699 5370
699 5892
699 6012
699 7218
699 8301
699 8527
699 8948
699 9827
699 9997
700 739
700 811
700 1690
700 4915
700 6041
700 6059
700 7030
700 7217
700 7726
700 8032
700 8216
700 8230
700 9441
700 9591
701 717
701 751
701 871
701 1134
701 1637
701 1647
701 1877
701 1940
701 2024
701 2144
701 2183
701 2803
701 3082
701 3764
701 4137
701 4894
701 5515
701 5905
701 6129
701 6513
701 6695
701 6745
701 7392
701 7936
701 7980
701 9058
701 9161
701 9258
701 9333
701 9411
701 9776
701 9804
701 9864
702 1090
702 1101
702 2273
702 2307
702 2344
702 2819
702 2858
702 4083
702 4461
702 5539
702 5590
702 6077
702 6446
702 6526
702 6584
702 6629
702 8165
702 8523
702 8764
702 8795
702 9623
702 9813
703 2897
703 3159
703 4036
703 4524
703 7287
703 8894
703 9371
704 826
704 1227
704 1407
704 1479
704 1841
704 3026
704 3748
704 5462
704 5827
704 6016
704 7224
704 7470
704 7850
704 9114
705 1923
705 2128
705 2268
705 2322
705 2993
705 3240
705 3729
705 4086
705 4749
705 5589
705 7476
705 7663
705 9218
706 1356
706 1739
706 1814
706 3151
706 3580
706 4889
706 5041
706 5433
706 5939
706 6026
706 6695
706 7038
706 7358
706 8346
706 8582
706 9467
707 1327
707 1530
707 1609
707 2583
707 3118
707 3654
707 4161
707 4672
707 5109
707 5544
707 5722
707 6190
707 6559
707 7021
708 1644
708 1882
708 2005
708 4245
708 4988
708 9323
709 772
709 1086
709 1158
709 1186
709 2643
709 3235
709 3380
709 3505
709 3675
709 4703
709 4872
709 4990
709 8206
709 9162
710 975
710 1171
710 1745
710 2823
710 3063
710 3597
710 5419
710 5758
710 6030
710 7818
710 7908
710 8416
710 8743
710 8749
710 9287
710 9371
710 9560
711 850
711 998
711 1336
711 2875
711 3153
711 4113
711 4741
711 4809
711 5080
711 5666
711 6042
711 6266
711 7968
711 8083
711 8091
711 8615
711 8696
711 8758
712 732
712 995
712 1313
712 2629
712 2903
712 2967
712 3069
712 3682
712 3704
712 3734
712 3825
712 3877
712 4103
712 4333
712 4589
712 4734
712 4764
712 5086
712 5277
712 5324
712 6359
712 6620
712 6955
712 7043
712 7143
712 7429
712 7437
712 7462
712 7502
712 7622
712 7747
712 9138
712 9270
712 9452
712 9514
712 9628
712 9900
713 1299
713 1340
713 1907
713 2667
713 4329
713 5579
713 5927
713 6255
713 6712
713 8024
713 8137
713 8212
713 8328
714 1126
714 1373
714 1841
714 2154
714 2521
714 4607
714 6434
714 6443
714 6816
714 7400
714 8342
714 8748
714 9514
714 9919
715 783
715 876
715 1941
715 3058
715 3565
715 3973
715 3990
715 5238
715 6221
715 6450
715 6837
715 7198
715 7452
715 7485
716 782
716 1520
716 4630
716 4789
716 4790
716 5146
716 5523
716 5650
716 7185
717 1548
717 2165
717 2183
717 2803
717 4749
717 5399
717 5591
717 6745
717 7676
718 844
718 2524
718 2848
718 3052
718 5109
718 5159
718 5242
718 5255
718 6364
718 7182
718 7460
718 8265
718 8466
718 8971
718 9154
718 9706
719 1167
719 3772
719 4473
719 4492
719 4504
719 5464
719 6525
719 6783
719 7733
719 7828
719 8237
719 9033
719 9428
720 841
720 1763
720 2262
720 2331
720 3918
720 4043
720 4875
720 7035
720 8081
720 9150
720 9570
720 9939
721 1111
721 1155
721 1339
721 2170
721 2985
721 3049
721 3583
721 4228
721 4841
721 5171
721 5225
721 5720
721 5997
721 6137
721 6215
721 6236
721 6535
721 6688
721 6721
721 6837
721 6995
721 7116
721 7228
721 7263
721 7482
721 7812
721 8322
721 8517
721 8588
721 8666
721 8861
721 8986
721 9467
721 9678
721 9798
721 9985
722 906
722 1145
722 1402
722 1450
722 2021
722 2133
722 2608
722 2828
722 2911
722 3074
722 3909
722 4818
722 5093
722 5521
722 5864
722 6656
722 6878
722 7178
722 7419
722 7464
722 8147
722 9084
722 9183
722 9792
723 765
723 2382
723 2664
723 2689
723 3308
723 3802
723 4317
723 4714
723 6762
723 7356
723 9979
724 796
724 1265
724 1482
724 1521
724 1750
724 1910
724 2240
724 2262
724 2307
724 3079
724 3213
724 3460
724 3769
724 3979
724 4027
724 4165
724 4347
724 4713
724 4946
724 5013
724 5518
724 5589
724 5638
724 5751
724 6275
724 7853
724 7911
724 8191
724 8296
724 8709
724 8720
724 9114
724 9490
724 9820
725 844
725 1233
725 1526
725 2006
725 2132
725 2160
725 2285
725 2384
725 2410
725 2499
725 2768
725 2925
725 2959
725 3424
725 3749
725 3991
725 4085
725 4283
725 5346
725 5664
725 6213
725 6508
725 6510
725 6582
725 6802
725 7090
725 7741
725 7882
725 8116
725 8197
725 8856
725 8928
725 9188
725 9194
725 9458
725 9678
725 9707
726 736
726 1048
726 1059
726 1071
726 1253
726 1792
726 2167
726 2585
726 2897
726 4127
726 5031
726 5079
726 5319
726 5940
726 6065
726 6702
726 6872
726 7146
726 8320
726 8453
726 8800
726 8834
726 8877
726 9203
726 9305
726 9916
726 9919
727 856
727 2915
727 3021
727 3370
727 3591
727 7082
727 7256
727 7385
727 7773
727 8724
727 8905
727 9470
727 9665
728 913
728 1883
728 2969
728 3135
728 3473
728 4541
728 4925
728 5730
728 6573
728 6680
728 6996
728 7280
728 7467
728 7501
728 8112
728 9010
728 9820
729 1288
729 1375
729 2487
729 2786
729 2827
729 2833
729 2933
729 3255
729 4368
729 4527
729 4637
729 4660
729 5318
729 6705
729 6745
729 7724
729 7922
729 8281
729 8644
729 8853
730 1254
730 1301
730 1478
730 2626
730 2936
730 5488
730 5550
730 5902
730 6034
730 6139
730 6686
730 7711
730 8565
731 1349
731 2630
731 3807
731 4111
731 4755
731 5917
731 6100
731 7881
731 8020
731 8643
731 9180
731 9188
731 9509
732 834
732 909
732 996
732 2164
732 2325
732 2801
732 3093
732 3307
732 3544
732 3734
732 3769
732 3807
732 3845
732 3902
732 4217
732 4244
732 4525
732 4796
732 5594
732 5604
732 5789
732 6110
732 6527
732 6532
732 6697
732 6852
732 6930
732 7893
732 8092
732 8325
732 8766
732 8771
732 8854
732 8903
732 9067
732 9109
732 9243
732 9395
733 803
733 1163
733 1441
733 1462
733 2228
733 2274
733 3077
733 3289
733 3407
733 5361
733 7952
733 8722
734 1590
734 2207
734 2757
734 3000
734 3758
734 4192
734 4223
734 5511
734 6414
734 6583
734 6756
734 6959
734 7961
734 8312
734 9120
734 9629
735 755
735 1031
735 1095
735 1636
735 1650
735 5501
735 5697
735 5881
735 6026
735 6163
735 7548
735 8095
735 8202
735 8223
735 8459
735 9218
735 9673
735 9674
736 1104
736 1233
736 1663
736 1744
736 1755
736 1849
736 2519
736 5076
736 6501
736 8137
737 1054
737 1709
737 4349
737 5350
737 6622
737 6928
737 7448
737 7610
737 7691
737 7928
737 9992
738 1133
738 1257
738 1476
738 1989
738 2119
738 2703
738 3083
738 5015
738 5746
738 6152
738 6706
738 7023
738 8747
739 760
739 893
739 1955
739 2698
739 2946
739 3119
739 3722
739 3737
739 7217
739 7933
739 8032
739 9423
739 9591
739 9619
740 829
740 1042
740 2449
740 2505
740 3184
740 3256
740 3720
740 4405
740 5093
740 5238
740 6409
740 7379
740 7679
740 8088
740 8287
740 9092
740 9267
740 9435
740 9671
741 1208
741 1366
741 1765
741 1816
741 2704
741 3009
741 3906
741 4630
741 4903
741 4963
741 5079
741 5480
741 5515
741 5815
741 6699
741 7138
741 7354
741 7368
741 7538
741 7655
741 7673
741 8034
741 8874
741 9206
741 9445
741 9865
742 788
742 2139
742 3916
742 5903
742 6080
742 6323
742 7595
742 8722
742 9195
743 1723
743 2091
743 2916
743 3477
743 3863
743 3915
743 4283
743 4329
743 4927
743 5516
743 5749
743 6609
743 6777
743 7120
743 7287
743 7371
743 7703
743 7952
743 8413
743 8821
743 8852
743 9432
744 1170
744 2351
744 2702
744 2819
744 3549
744 3928
744 4231
744 6601
744 7037
744 7461
744 8653
745 792
745 817
745 829
745 1079
745 1775
745 1871
745 2054
745 2089
745 2369
745 2625
745 2751
745 2966
745 3064
745 3738
745 4319
745 4357
745 4612
745 4708
745 4711
745 4724
745 4806
745 4869
745 5364
745 5435
745 5752
745 5814
745 6089
745 6652
745 6811
745 6869
745 6873
745 7724
745 7838
745 7921
745 8952
745 9309
745 9532
745 9863
746 962
746 1386
746 1407
746 1645
746 1664
746 1785
746 1866
746 2177
746 2433
746 3964
746 4401
746 4437
746 5030
746 5048
746 5447
746 6633
746 6916
746 7086
746 7656
746 7669
746 9162
746 9765
747 1080
747 1254
747 3027
747 3587
747 4240
747 4271
747 5054
747 5097
747 6531
747 6966
747 7954
747 8060
747 8884
747 8918
748 1263
748 3686
748 3909
748 6880
748 7068
748 7351
748 7794
748 9179
748 9374
748 9447
748 9476
749 2826
749 2969
749 3525
749 4273
749 4360
749 4502
749 5007
749 5270
749 7620
749 8217
749 8556
749 9116
749 9412
750 928
750 931
750 1255
750 2076
750 3568
750 5413
750 5553
751 913
751 1109
751 1136
751 1520
751 1634
751 2353
751 2392
751 3328
751 4092
751 4931
751 4939
751 5113
751 5217
751 5321
751 5328
751 5883
751 6545
751 6669
751 7091
751 7407
751 7434
751 7457
751 7852
751 8017
751 8163
751 8253
751 8427
751 8936
751 9229
751 9424
751 9923
751 9940
752 1091
752 1338
752 2292
752 2887
752 2951
752 3380
752 4470
752 4660
752 5118
752 5804
752 6352
752 7465
752 8104
752 8746
752 8766
753 1003
753 1387
753 1857
753 2354
753 2628
753 3222
753 3687
753 3983
753 5332
753 5510
753 7098
753 7979
753 8647
753 9634
753 9818
754 828
754 920
754 1665
754 1824
754 2503
754 2856
754 2933
754 2967
754 3132
754 3416
754 3439
754 3582
754 3632
754 3774
754 3804
754 3815
754 3896
754 4042
754 4080
754 4161
754 4550
754 4798
754 4810
754 5090
754 5584
754 6140
754 6897
754 6940
754 7349
754 7802
754 7896
754 8042
754 8836
754 9349
755 1828
755 3269
755 3773
755 5314
755 5685
755 6323
755 6574
755 6900
755 8160
755 8272
755 8759
755 9032
755 9231
755 9647
756 1220
756 1574
756 1755
756 2090
756 2168
756 2401
756 3711
756 4079
756 5359
756 5413
756 6642
756 9037
756 9971
757 1380
757 1472
757 1826
757 2148
757 3284
757 3407
757 4277
757 4501
757 4687
757 4819
757 5900
757 5998
757 6629
757 6980
757 8176
757 8355
757 9509
758 1126
758 1834
758 2899
758 3691
758 4030
758 4505
758 4595
758 4626
758 4784
758 8177
758 8732
758 8763
759 858
759 2815
759 3597
759 4166
759 4485
759 5256
759 5501
759 7239
759 8028
759 8154
759 8302
759 8941
759 9841
760 820
760 1436
760 1684
760 1823
760 2159
760 2494
760 2563
760 2569
760 2768
760 3117
760 3524
760 3815
760 5261
760 5845
760 6089
760 6105
760 6315
760 6672
760 8042
760 8376
760 9053
760 9070
760 9737
761 1496
761 1875
761 2157
761 2555
761 3304
761 4092
761 4323
761 4353
761 4587
761 5663
761 7942
761 9617
762 1125
762 1513
762 1990
762 2125
762 2335
762 3786
762 4031
762 5153
762 5257
762 5466
762 5872
762 6435
762 6627
762 7090
762 7393
762 8121
762 8139
762 8156
762 8406
762 9491
762 9594
763 1164
763 1256
763 1608
763 1832
763 2157
763 3095
763 4357
763 4556
763 5716
763 6327
763 7683
763 8233
763 8422
764 1221
764 1457
764 1974
764 2200
764 5829
764 6730
764 8220
764 9167
764 9804
765 821
765 969
765 1203
765 1290
765 1575
765 1610
765 1792
765 2439
765 2738
765 3113
765 3538
765 3550
765 3983
765 4165
765 4646
765 4665
765 4807
765 5018
765 5147
765 5612
765 6005
765 6765
765 6848
765 6928
765 7800
765 7928
765 7964
765 8214
765 8285
765 8328
765 8422
765 8602
765 9140
765 9723
765 9838
766 1564
766 3663
766 4609
766 8764
766 8849
766 9368
766 9615
767 841
767 1453
767 1868
767 2401
767 3562
767 4012
767 4935
767 5430
767 5778
767 5784
767 6359
767 6641
767 6686
767 7047
767 7452
767 7761
767 8337
767 8786
768 1637
768 2756
768 3643
768 4182
768 4327
768 5944
768 6773
768 6898
768 8627
768 8648
768 9772
769 784
769 801
769 805
769 818
769 1504
769 1624
769 2535
769 3171
769 3461
769 3644
769 3666
769 4503
769 4641
769 4766
769 5711
769 5771
769 5939
769 5945
769 6093
769 6278
769 6562
769 6573
769 6603
769 6895
769 7280
769 7345
769 7520
769 7582
769 7653
769 7715
769 8075
769 8271
769 8470
769 8546
769 8760
769 9353
769 9590
769 9826
769 9912
770 1285
770 3102
770 3353
770 3357
770 4965
770 5592
770 6149
770 6751
770 7180
770 8083
770 8996
770 9072
770 9825
770 9879
770 9964
771 2111
771 3173
771 3752
771 3849
771 4266
771 4702
771 5413
771 5513
771 5742
771 5969
771 6355
771 6727
771 7285
771 7467
771 8255
771 9450
771 9870
772 875
772 1914
772 2165
772 2494
772 2867
772 2969
772 3565
772 3804
772 5493
772 6755
772 6937
772 8774
772 9042
772 9254
772 9445
772 9932
773 1121
773 1320
773 1422
773 2328
773 2599
773 2789
773 3047
773 3185
773 3751
773 4656
773 5039
773 6110
773 6853
773 7370
773 7539
773 8168
774 910
774 926
774 1034
774 1379
774 2925
774 4781
774 4990
774 5261
774 5810
774 6968
774 8050
774 8310
774 8949
774 9338
774 9519
774 9689
775 2630
775 2931
775 3102
775 4039
775 4128
775 5757
775 6176
775 6537
775 7533
775 7536
775 7711
775 7840
775 9658
775 9965
776 945
776 1630
776 1697
776 1767
776 1775
776 1847
776 2272
776 2312
776 2356
776 2522
776 2639
776 3281
776 3308
776 3685
776 4307
776 4470
776 4644
776 4757
776 5400
776 5450
776 5875
776 6088
776 6150
776 6208
776 6817
776 7180
776 7265
776 7880
776 7889
776 8120
776 8169
776 8244
776 8339
776 8879
776 8979
776 9138
776 9217
776 9707
777 807
777 962
777 976
777 1305
777 1497
777 1745
777 1954
777 2582
777 2877
777 2954
777 3317
777 3605
777 3665
777 3708
777 3973
777 4080
777 4559
777 4626
777 4752
777 4774
777 5039
777 5132
777 5294
777 5510
777 5684
777 5810
777 5894
777 6258
777 7179
777 7221
777 7305
777 7386
777 7927
777 8065
777 8629
777 8664
777 9289
777 9318
777 9517
778 1261
778 2393
778 4451
778 5203
778 6473
778 6777
778 7082
778 8690
778 8918
778 9095
778 9263
779 1445
779 2164
779 2607
779 3006
779 4436
779 5487
779 5505
779 5727
779 7467
779 7721
779 8142
779 8225
779 8395
779 8417
779 8684
779 9210
779 9555
780 914
780 1438
780 2090
780 2127
780 2435
780 2555
780 2722
780 3358
780 3682
780 4097
780 4707
780 4918
780 5922
780 6010
780 6629
780 6931
780 9097
780 9325
780 9612
780 9784
780 9847
780 9895
781 830
781 1470
781 1736
781 2119
781 2369
781 3095
781 3198
781 3463
781 5615
781 7139
781 7406
781 7676
781 8266
781 9065
782 1680
782 2027
782 2508
782 2677
782 2726
782 2755
782 2786
782 3151
782 4307
782 5907
782 8312
782 8471
782 8979
782 9247
782 9608
783 1172
783 2573
783 2672
783 3146
783 3682
783 5290
783 5697
783 5698
783 5962
783 6630
783 7010
783 7105
783 7510
783 8934
784 790
784 1633
784 3290
784 3291
784 3571
784 3972
784 6278
784 6932
784 7582
784 7745
784 9510
785 1134
785 1499
785 2268
785 2305
785 2374
785 2547
785 2625
785 2812
785 3123
785 3338
785 3886
785 4624
785 4967
785 4970
785 5298
785 5354
785 6412
785 6593
785 6940
785 7770
785 9048
786 805
786 987
786 1401
786 1519
786 1674
786 1995
786 1999
786 2037
786 2055
786 2347
786 4076
786 4322
786 4324
786 5170
786 5358
786 5468
786 6205
786 6284
786 6703
786 7447
786 8061
786 8221
786 8282
786 9113
786 9312
786 9409
786 9480
786 9515
786 9630
786 9828
786 9910
786 9929
787 1135
787 1289
787 2129
787 2757
787 3303
787 3374
787 3787
787 5067
787 6335
787 6641
787 6713
787 7733
787 7914
787 7980
787 9187
787 9535
788 839
788 1288
788 3026
788 3615
788 3804
788 4293
788 5627
788 5851
788 7292
788 7607
788 8409
788 9114
789 1143
789 1654
789 1967
789 2994
789 3246
789 3877
789 4037
789 5673
789 5868
789 7838
789 8184
789 8447
790 1136
790 1388
790 1526
790 1538
790 1644
790 1718
790 1759
790 2762
790 2804
790 3255
790 3323
790 3494
790 3499
790 3992
790 4214
790 4324
790 4474
790 4526
790 4872
790 5146
790 5180
790 5433
790 5497
790 5821
790 5944
790 6102
790 6252
790 6360
790 6405
790 6416
790 6816
790 7026
790 7123
790 7311
790 7461
790 7552
790 7798
790 8268
790 8284
790 8544
790 8669
790 9290
790 9426
790 9779
790 9856
791 896
791 1468
791 2550
791 4404
791 4673
791 4801
791 5733
791 5810
791 6292
791 7744
791 8481
791 8586
791 9242
791 9499
791 9715
791 9834
792 1071
792 1161
792 1393
792 1459
792 2751
792 3046
792 3204
792 3675
792 3832
792 3892
792 4927
792 5701
792 5749
792 6317
792 6514
792 6590
792 6634
792 6996
792 7076
792 7395
792 7549
792 8057
792 8162
792 8194
792 8656
792 9128
793 1007
793 1111
793 1808
793 3135
793 3614
793 3704
793 4606
793 4732
793 4765
793 4842
793 4924
793 6100
793 6369
793 6494
793 6557
793 6751
793 6756
793 6887
793 7194
793 7230
793 7553
793 7597
793 7610
793 8546
793 9208
793 9831
794 1021
794 1811
794 3324
794 4081
794 4384
794 4456
794 6409
794 8138
794 8422
794 8930
794 9690
795 879
795 1178
795 1310
795 1531
795 1748
795 3237
795 4224
795 5207
795 5523
795 6822
795 6984
795 7125
795 7289
795 7454
795 7479
795 7684
795 7975
795 8760
795 9196
796 3645
796 3687
796 4221
796 5135
796 6872
796 7059
796 8308
796 8421
796 9415
796 9985
797 908
797 1668
797 1786
797 2268
797 2402
797 2653
797 3461
797 3729
797 3751
797 3792
797 3811
797 3826
797 3840
797 3847
797 3956
797 3999
797 4373
797 4407
797 4583
797 4811
797 4971
797 5104
797 5617
797 5908
797 6105
797 6136
797 6678
797 7109
797 7344
797 7874
797 8512
797 8814
797 9261
797 9308
797 9605
798 1830
798 2951
798 3268
798 3489
798 3516
798 3559
798 4146
798 4181
798 5013
798 5344
798 6328
798 6348
798 7470
798 7619
798 7834
799 1296
799 1443
799 1752
799 2498
799 2517
799 2535
799 2992
799 3217
799 3996
799 4745
799 5405
799 5634
799 5656
799 5725
799 6170
799 6365
799 6881
799 7858
799 8626
799 9185
799 9359
799 9501
800 1298
800 1517
800 3139
800 3993
800 4275
800 4278
800 5461
800 6108
800 6562
800 6745
800 7101
800 8422
800 9903
801 1504
801 3290
801 4488
801 4503
801 6225
801 6513
801 7582
801 7752
801 7964
801 8075
801 9448
801 9467
802 1189
802 2095
802 2618
802 3143
802 3807
802 3973
802 4415
802 5551
802 6087
802 6743
802 7061
802 7223
802 8570
802 9154
802 9779
803 1623
803 1662
803 1667
803 2068
803 2169
803 2193
803 2475
803 2483
803 3164
803 3785
803 3892
803 4108
803 4534
803 4854
803 5283
803 5373
803 5805
803 5913
803 5937
803 6177
803 6479
803 6519
803 7343
803 7591
803 7721
803 7761
803 7794
803 7796
803 7969
803 7995
803 8516
803 8565
803 8681
803 8872
803 9013
803 9565
803 9774
803 9828
803 9911
804 2846
804 3241
804 5917
804 6989
804 7144
804 7432
804 8538
804 9839
805 1504
805 1671
805 3540
805 4503
805 6387
805 6603
805 7726
805 8075
805 8667
806 1039
806 1213
806 1478
806 2841
806 2951
806 4120
806 5256
806 5357
806 5460
806 6811
806 6956
806 9058
806 9180
807 962
807 1361
807 1495
807 2054
807 2954
807 3159
807 4587
807 5207
807 5452
807 5510
807 5810
807 6149
807 6984
807 7866
807 7957
807 8392
807 8441
807 8664
807 9215
807 9561
807 9572
807 9678
807 9792
808 1438
808 1470
808 1671
808 1757
808 2285
808 2541
808 3503
808 3745
808 3789
808 5579
808 5711
808 5836
808 6304
808 6310
808 7414
809 1480
809 2694
809 2973
809 3169
809 4954
809 4968
809 5165
809 5972
809 6158
809 6569
809 7410
809 8226
809 8706
809 9153
810 1323
810 2780
810 4938
810 6638
810 6981
810 7613
810 7661
810 7840
810 9213
811 1122
811 1206
811 1418
811 1545
811 3575
811 3889
811 3918
811 5185
811 5585
811 5880
811 5944
811 6485
811 6637
811 7054
811 7278
811 7279
811 8265
811 8440
812 1216
812 1875
812 3812
812 4026
812 4305
812 5207
812 7214
812 7423
812 8302
812 8679
812 9500
813 1151
813 1177
813 2073
813 2271
813 4063
813 5196
813 6869
813 7474
813 7661
813 7872
813 8057
813 8176
813 8550
813 9086
813 9221
813 9353
813 9840
813 9937
814 1339
814 2023
814 3242
814 3404
814 3498
814 3610
814 3906
814 5801
814 6201
814 6732
814 6945
814 7864
814 8780
814 9200
814 9536
814 9732
815 1983
815 1993
815 2663
815 4712
815 6837
815 7453
815 7935
815 9316
815 9432
816 882
816 1190
816 1371
816 1909
816 2859
816 3106
816 3916
816 4076
816 4247
816 4296
816 4834
816 5199
816 5486
816 6947
816 7157
816 7424
816 7893
816 8311
816 8873
816 9009
816 9964
817 1119
817 1181
817 2060
817 2503
817 3271
817 3404
817 5443
817 6503
817 7128
817 7245
817 7586
817 8137
818 2293
818 2445
818 2471
818 2944
818 3488
818 3726
818 3738
818 4162
818 5008
818 5309
818 5484
818 5626
818 5787
818 6100
818 7978
818 8116
818 8612
818 8751
818 9024
818 9179
818 9372
818 9449
819 2713
819 2966
819 3279
819 3440
819 3743
819 4266
819 4784
819 5263
819 6373
819 7024
819 7561
819 8522
819 9310
819 9564
819 9922
820 1220
820 1512
820 1852
820 1904
820 1991
820 3408
820 3620
820 3649
820 4119
820 4134
820 4615
820 5069
820 5280
820 5697
820 5793
820 6014
820 6339
820 6987
820 7134
820 7540
820 8021
820 8026
820 8320
820 8707
820 8891
820 9214
820 9645
821 1735
821 1971
821 3765
821 4257
821 4621
821 5371
821 6871
821 7423
821 8521
821 8523
821 8617
821 8698
821 9061
821 9211
821 9900
821 9922
822 1397
822 1748
822 1833
822 2324
822 3167
822 5203
822 5370
822 5477
822 5975
822 6084
822 6276
822 7042
822 7855
822 9093
823 852
823 1056
823 1209
823 1217
823 1493
823 1505
823 1910
823 2495
823 2763
823 2931
823 2949
823 3101
823 3863
823 4372
823 4545
823 5681
823 6142
823 6401
823 6510
823 6766
823 7327
823 7677
824 1057
824 1207
824 1229
824 1402
824 1698
824 1709
824 2435
824 2630
824 3087
824 3553
824 3583
824 4035
824 4181
824 4420
824 4784
824 5529
824 5825
824 5983
824 6421
824 6445
824 6476
824 6580
824 6943
824 6982
824 7070
824 7245
824 7405
824 7480
824 7595
824 7864
824 8156
824 8655
824 9017
824 9113
824 9552
825 849
825 1784
825 2436
825 2496
825 2593
825 3268
825 3411
825 3610
825 3726
825 4135
825 4478
825 5167
825 6085
825 6209
826 1214
826 1688
826 1882
826 2360
826 4665
826 5703
826 5930
826 6755
826 7609
826 9581
827 1585
827 2397
827 2724
827 3435
827 4077
827 4147
827 5810
827 6236
827 6679
827 7002
827 7562
827 8316
827 9479
827 9886
828 1815
828 1942
828 2809
828 3659
828 4091
828 5463
828 5841
828 6527
828 7086
828 8582
828 8792
828 9160
829 1051
829 1138
829 1216
829 1366
829 1545
829 2193
829 2258
829 2505
829 2627
829 3326
829 4155
829 4836
829 5093
829 5238
829 7163
829 7365
829 7435
829 7706
829 7739
829 8184
829 8734
829 8933
829 9025
829 9092
829 9542
829 9671
829 9822
830 950
830 1076
830 1885
830 2114
830 2115
830 2838
830 3412
830 3442
830 3881
830 4150
830 4199
830 4449
830 4980
830 6070
830 6861
830 7040
830 8294
830 8417
830 8601
830 8819
830 9773
831 970
831 1309
831 1791
831 2116
831 2175
831 3947
831 3953
831 4177
831 4360
831 4602
831 6864
831 7964
831 8100
832 1152
832 1479
832 3124
832 3788
832 3976
832 4150
832 4356
832 5004
832 5311
832 6035
832 7162
832 8047
832 8243
832 8677
832 8684
832 9563
833 1278
833 1605
833 3238
833 4503
833 7462
833 8058
833 8169
833 8484
833 8623
833 9282
834 1835
834 1858
834 1859
834 2023
834 3312
834 3436
834 3627
834 4279
834 5881
834 6306
834 6451
834 6501
834 6715
834 6816
834 9189
834 9257
834 9794
834 9941
835 2858
835 2889
835 5269
835 6323
835 6992
835 7739
835 8080
835 8410
835 9037
835 9153
835 9320
835 9404
836 3382
836 3728
836 3996
836 4079
836 4169
836 4453
836 4998
836 6100
836 7589
836 7836
836 8584
836 8609
836 9517
836 9662
836 9674
837 860
837 1056
837 1080
837 1241
837 4068
837 4147
837 5846
837 5851
837 7011
837 9241
838 1541
838 1633
838 3374
838 3437
838 3804
838 6246
838 7148
838 7913
838 8906
838 9467
839 1575
839 1620
839 1901
839 1913
839 1954
839 2006
839 2186
839 2231
839 2624
839 2667
839 2670
839 2777
839 3170
839 3204
839 3849
839 4013
839 4695
839 5048
839 5215
839 5322
839 5413
839 5437
839 5884
839 6110
839 6608
839 6692
839 6819
839 8072
839 8253
839 8707
839 8992
839 9065
839 9320
839 9338
839 9400
840 1902
840 2392
840 2549
840 3119
840 3853
840 3859
840 3908
840 4294
840 4988
840 4989
840 5834
840 6189
840 7816
840 7917
840 8448
840 9607
841 1535
841 1749
841 2210
841 2861
841 3256
841 4597
841 5573
841 5819
841 5972
841 7222
841 8628
841 8737
841 9753
841 9771
841 9831
842 1986
842 2963
842 3721
842 4635
842 5234
842 5320
842 7136
842 7208
842 7287
842 7375
842 7473
842 7738
842 8249
842 8304
842 8646
842 8982
842 9263
843 1145
843 1518
843 1930
843 2798
843 2880
843 3901
843 3989
843 4177
843 4652
843 4718
843 5008
843 5884
843 7015
843 7724
843 8323
843 8717
843 8752
843 9174
843 9636
843 9725
843 9755
844 1448
844 1754
844 2384
844 2724
844 2993
844 3089
844 3472
844 3667
844 3991
844 4162
844 4283
844 5093
844 5267
844 5345
844 5664
844 5783
844 6213
844 6423
844 6508
844 6672
844 7266
844 7298
844 8134
844 8197
844 9242
844 9833
844 9959
845 1534
845 1787
845 1894
845 1907
845 2187
845 2198
845 2752
845 2976
845 3302
845 3362
845 3364
845 3826
845 4444
845 4870
845 5717
845 5780
845 5849
845 6214
845 6838
845 7174
845 7622
845 7821
845 8702
845 9011
845 9347
845 9355
845 9362
846 999
846 2969
846 3555
846 4604
846 5088
846 5437
846 5681
846 6846
846 7650
846 8163
846 8228
846 8459
846 8703
846 9263
847 1227
847 1967
847 2024
847 2096
847 2252
847 2345
847 2429
847 4466
847 4812
847 6414
847 6467
847 7518
847 7986
847 8132
847 8431
847 8941
847 9175
848 1089
848 1735
848 1916
848 2099
848 3031
848 3727
848 3945
848 4040
848 4519
848 4603
848 5167
848 6031
848 6061
848 6135
848 6400
848 6543
848 6892
848 7179
848 7694
848 7802
848 7913
848 8064
848 8131
848 8508
848 8708
848 9060
849 1432
849 1936
849 2387
849 2496
849 2677
849 2714
849 3465
849 3876
849 4099
849 4104
849 4135
849 4478
849 5167
849 5458
849 5786
849 5995
849 6209
849 6383
849 6594
849 6802
849 7968
849 8273
849 8420
849 8514
849 8543
849 8836
849 8873
850 1175
850 1233
850 1812
850 1909
850 1914
850 3034
850 3122
850 3894
850 4147
850 4541
850 4548
850 4588
850 4670
850 4877
850 5082
850 5130
850 5605
850 5813
850 6611
850 6676
850 7412
850 7587
850 7695
850 8142
850 8382
850 9551
850 9633
851 2052
851 2177
851 2223
851 3798
851 3834
851 4054
851 4620
851 4798
851 4842
851 5452
851 6326
851 6397
851 9986
852 1505
852 2541
852 3812
852 4884
852 5252
852 5452
852 5788
852 7327
852 7935
852 8406
852 9357
853 1968
853 2889
853 3498
853 4093
853 4251
853 5592
853 6978
853 7739
853 8169
853 8554
853 8729
853 9404
854 932
854 1540
854 1605
854 2436
854 2569
854 3127
854 3169
854 3214
854 3236
854 3452
854 3573
854 3649
854 4405
854 4487
854 4929
854 5185
854 5271
854 5957
854 6155
854 6180
854 6215
854 6342
854 6361
854 6511
854 6935
854 7261
854 7635
854 7640
854 8015
854 8066
854 8126
854 8216
854 8327
854 8752
854 8766
854 9052
854 9179
854 9575
854 9963
855 880
855 1228
855 1274
855 1745
855 2099
855 2244
855 2292
855 2441
855 2557
855 2700
855 2723
855 2938
855 3091
855 3986
855 4030
855 4197
855 4305
855 4313
855 4393
855 4789
855 5148
855 5297
855 5408
855 5653
855 5854
855 5891
855 6037
855 6398
855 6950
855 6969
855 7203
855 7405
855 7790
855 7907
855 7992
855 8262
855 8383
855 9183
855 9597
855 9745
856 1208
856 2491
856 2493
856 3021
856 3080
856 3190
856 3370
856 3677
856 3814
856 4183
856 4354
856 4797
856 4843
856 4846
856 4999
856 5071
856 5577
856 5911
856 6214
856 6857
856 7062
856 7274
856 8724
856 9244
857 1705
857 1824
857 3084
857 4100
857 6100
857 6421
857 7467
857 8258
857 8406
857 8907
857 9134
857 9170
858 1328
858 1911
858 2758
858 3304
858 3897
858 4489
858 4937
858 4948
858 5702
858 5939
858 6424
858 6613
858 7553
858 7852
858 8031
858 9035
858 9219
858 9245
858 9492
859 2271
859 2946
859 3458
859 3718
859 3835
859 4159
859 4890
859 5330
859 5813
859 5826
859 6414
859 6653
859 6865
859 6953
859 8323
859 9423
860 1491
860 1615
860 2069
860 2383
860 3482
860 3594
860 4074
860 4211
860 5169
860 5311
860 5459
860 5461
860 5578
860 5743
860 5748
860 5785
860 5987
860 6065
860 6086
860 6346
860 6691
860 7032
860 7693
860 9523
861 2295
861 3267
861 4602
861 5747
861 7721
861 7990
861 8167
861 8175
862 1012
862 1512
862 1838
862 1853
862 2046
862 2053
862 2072
862 2466
862 2550
862 2692
862 3147
862 3206
862 4313
862 5103
862 5980
862 6725
862 6743
862 8533
862 9225
862 9395
862 9456
862 9647
862 9747
862 9850
863 915
863 1100
863 1767
863 1877
863 2681
863 2726
863 2829
863 3395
863 3421
863 3422
863 3483
863 4145
863 5071
863 5586
863 6104
863 6269
863 6486
863 6580
863 6644
863 7079
863 7157
863 7496
863 7580
863 7799
863 7825
863 8104
863 8449
863 8814
863 9427
863 9578
863 9826
864 3174
864 3373
864 3575
864 3615
864 4139
864 4427
864 4566
864 5095
864 5711
864 5881
864 5932
864 6382
864 6755
864 6948
864 7084
864 8580
864 9040
864 9111
865 1395
865 1462
865 1648
865 2618
865 2831
865 2842
865 3678
865 3895
865 5528
865 5620
865 5782
865 6285
865 6339
865 6853
865 7879
866 874
866 999
866 1296
866 2066
866 2383
866 5447
866 6841
866 7173
866 7683
866 8989
866 9231
867 907
867 2079
867 2130
867 2756
867 3131
867 3490
867 4494
867 4722
867 5345
867 5445
867 5851
867 5986
867 6755
867 7290
867 7598
867 7922
868 890
868 2894
868 5783
868 7444
868 7458
868 7993
868 8024
868 8139
868 9262
868 9351
869 2658
869 2699
869 3280
869 3409
869 4462
869 4801
869 5452
869 5517
869 6028
869 7296
869 8052
869 8780
869 8879
869 9515
870 1727
870 1835
870 2097
870 2472
870 2604
870 2664
870 2890
870 2915
870 3174
870 4801
870 5032
870 6460
870 6563
870 8111
870 9028
871 2252
871 2482
871 2731
871 2876
871 3217
871 3342
871 3716
871 3737
871 4244
871 4441
871 5274
871 5316
871 5998
871 6822
871 6873
871 7610
871 8151
871 8252
871 9057
871 9504
871 9552
871 9968
872 977
872 3803
872 5897
872 6072
872 7480
872 8310
872 8508
872 8916
872 9313
873 1331
873 2079
873 2268
873 2895
873 3130
873 3244
873 4145
873 4351
873 4621
873 5042
873 5513
873 6997
873 7102
873 7548
873 7747
873 9162
873 9859
874 923
874 1417
874 2333
874 4192
874 4277
874 4469
874 5013
874 5214
874 6275
874 6349
874 6372
874 6831
874 7116
874 7239
874 7513
874 7676
874 7789
874 7848
874 8277
874 8539
874 8645
874 8673
874 8796
874 9158
874 9938
875 928
875 2165
875 2544
875 4116
875 5024
875 5047
875 5275
875 5396
875 6046
875 6541
875 6625
875 7287
875 7345
875 8674
875 8729
875 8950
875 9932
875 9946
876 1777
876 2239
876 3438
876 6005
876 7114
876 8881
876 9240
876 9819
877 1051
877 1217
877 1221
877 1365
877 1498
877 1828
877 2001
877 2022
877 2109
877 2142
877 2191
877 2316
877 2369
877 2561
877 2859
877 3132
877 3908
877 4305
877 4429
877 4719
877 5013
877 5298
877 5921
877 6031
877 6119
877 6200
877 6280
877 6542
877 6583
877 6913
877 7545
877 7647
877 7741
877 8589
877 9123
877 9130
877 9467
877 9555
878 991
878 1117
878 3456
878 5280
878 9459
878 9893
878 9904
879 1421
879 3565
879 4244
879 4291
879 6789
879 7688
879 8918
879 9122
879 9210
880 1094
880 3589
880 5037
880 7066
880 7215
880 7935
880 8144
880 8227
880 9111
880 9813
880 9892
881 2500
881 3319
881 5067
881 6014
881 6282
881 6850
881 7515
881 7546
881 8438
881 9076
882 1371
882 1686
882 1930
882 2183
882 2266
882 2859
882 3038
882 4076
882 5819
882 6021
882 7424
882 8412
882 8873
883 942
883 2486
883 3134
883 3688
883 4814
883 4836
883 4928
883 5264
883 5402
883 6084
883 6117
883 6220
883 6501
883 6866
883 6965
883 7261
883 7431
883 7609
883 8201
883 8987
883 9496
883 9792
884 1285
884 1343
884 1660
884 1710
884 2681
884 2823
884 2880
884 2899
884 3335
884 3531
884 3766
884 3773
884 3804
884 4381
884 4411
884 4583
884 4740
884 5269
884 5473
884 5679
884 5977
884 6487
884 6827
884 6925
884 7555
884 7685
884 7718
884 7762
884 7765
884 8132
884 8248
884 8870
884 9272
884 9758
884 9826
884 9890
885 921
885 1367
885 2565
885 2717
885 3503
885 3581
885 3668
885 4161
885 4229
885 4612
885 4876
885 6289
885 6520
885 6632
885 6664
885 8581
885 9873
886 1125
886 3464
886 3635
886 3661
886 5081
886 5728
886 7085
886 8349
886 8720
887 1561
887 1590
887 1793
887 2514
887 2780
887 5238
887 5440
887 6006
887 6498
887 7224
887 7613
887 7661
887 8674
887 9213
887 9961
887 9974
888 1468
888 2660
888 3235
888 3908
888 5059
888 5921
888 6234
888 6741
888 7521
889 1146
889 1814
889 2320
889 2444
889 3490
889 3580
889 4813
889 4949
889 5344
889 6221
889 7038
889 7336
889 9404
889 9467
889 9970
890 2514
890 5250
890 5343
890 5345
890 5546
890 5633
890 6489
890 6915
890 7057
890 7449
890 8141
890 8695
891 1175
891 1381
891 2717
891 3138
891 3176
891 3893
891 4086
891 4695
891 4788
891 4940
891 5336
891 6230
891 9818
891 9862
892 911
892 2021
892 2175
892 2386
892 2746
892 3083
892 3763
892 4893
892 5486
892 8544
892 9107
893 2802
893 3840
893 4070
893 4187
893 4237
893 4353
893 4643
893 4963
893 5422
893 5828
893 6581
893 6921
893 6962
893 7162
893 7284
893 7377
893 7424
893 7964
893 8225
893 9149
893 9265
893 9472
894 1951
894 2948
894 4119
894 4213
894 4238
894 4577
894 5300
894 5630
894 6131
894 6460
894 6845
894 7146
894 8386
894 8759
895 1274
895 2241
895 2383
895 3587
895 4396
895 5054
895 7093
895 7240
895 7954
895 8502
895 9052
895 9834
896 1326
896 1330
896 1486
896 1671
896 1913
896 3306
896 5193
896 5522
896 6443
896 8736
896 9946
896 9947
897 1162
897 1634
897 1716
897 2193
897 3552
897 3716
897 4134
897 4920
897 4937
897 5699
897 6100
897 6373
897 6679
897 6821
897 8092
897 8205
897 8539
897 8892
897 9187
897 9403
897 9434
897 9678
897 9779
898 1976
898 2005
898 2714
898 3495
898 5272
898 5373
898 7406
898 8170
898 8390
898 8899
898 9083
898 9677
898 9999
899 946
899 1254
899 1386
899 1902
899 1920
899 2083
899 2192
899 2226
899 2541
899 2823
899 3150
899 3360
899 3987
899 4380
899 4544
899 5501
899 5689
899 5861
899 9467
900 1054
900 1113
900 1673
900 1701
900 2311
900 2798
900 2862
900 3152
900 3518
900 4064
900 4187
900 4591
900 4621
900 4831
900 5000
900 5389
900 5545
900 6338
900 6711
900 7327
900 7336
900 7472
900 7528
900 7716
900 7901
900 7942
900 8060
900 8480
900 8814
900 8853
900 8981
900 8988
900 9420
900 9575
900 9776
900 9985
901 1104
901 1324
901 1822
901 2586
901 2959
901 4164
901 5014
901 5246
901 5970
901 6077
901 6423
901 7328
902 934
902 1050
902 1136
902 1895
902 2233
902 2983
902 3422
902 3492
902 3631
902 3852
902 3855
902 3863
902 4222
902 4230
902 4552
902 4571
902 4634
902 4764
902 4836
902 4847
902 5383
902 5401
902 5458
902 5467
902 5964
902 6352
902 6820
902 7132
902 7410
902 7439
902 8176
902 8407
902 8892
902 9268
902 9532
902 9535
902 9657
902 9874
903 1276
903 1818
903 2511
903 2910
903 3929
903 5289
903 6103
903 6352
903 7152
903 7208
903 7872
903 8184
903 8542
903 9886
904 1669
904 4697
904 4832
904 4917
904 7178
904 7258
904 7610
904 8055
904 9232
905 1147
905 1949
905 2695
905 3071
905 3876
905 4621
905 4736
905 5285
905 5450
905 5907
905 6647
905 6679
905 9783
906 1020
906 1686
906 3235
906 3302
906 3337
906 3690
906 3731
906 4139
906 4971
906 5499
906 5565
906 5738
906 6364
906 6870
906 7632
906 8316
906 8504
907 953
907 1090
907 1786
907 2141
907 2154
907 2386
907 3386
907 3916
907 3938
907 3957
907 4068
907 4163
907 4317
907 4318
907 4912
907 4992
907 5717
907 5832
907 5976
907 7370
907 8809
907 9714
908 1658
908 2890
908 3014
908 4846
908 5114
908 5782
908 6466
908 6678
908 7002
908 7965
908 8078
908 8953
908 9116
908 9720
909 1105
909 1112
909 1203
909 1451
909 3030
909 3224
909 3432
909 4664
909 4893
909 5112
909 5549
909 5778
909 6821
909 7489
909 7696
909 9708
909 9969
910 1028
910 1725
910 4450
910 4607
910 7924
910 8050
910 8310
910 9398
910 9435
910 9519
911 1248
911 1312
911 1351
911 1660
911 2021
911 2289
911 2386
911 2712
911 2746
911 2813
911 2889
911 3005
911 3545
911 3763
911 3766
911 3802
911 4356
911 4864
911 5349
911 5486
911 5555
911 5802
911 6179
911 6254
911 6538
911 6909
911 7098
911 7102
911 8065
911 8152
911 8565
911 8575
911 8582
911 8861
911 9036
911 9107
911 9578
911 9935
911 9994
912 1048
912 1513
912 2293
912 3179
912 4057
912 4380
912 4469
912 6232
912 6396
912 6606
912 7085
912 7695
912 8639
913 1299
913 1304
913 1380
913 1455
913 2358
913 2528
913 2746
913 2748
913 3327
913 3612
913 3977
913 5383
913 5475
913 6183
913 6228
913 7338
913 7362
913 7626
913 8561
913 8645
913 9447
913 9697
914 1818
914 1974
914 2206
914 2614
914 2749
914 3440
914 3737
914 3840
914 4606
914 6795
914 8516
914 9350
914 9990
915 1515
915 2169
915 2173
915 2490
915 4851
915 6260
915 7076
915 7160
915 8577
915 9415
916 2189
916 2192
916 2233
916 4107
916 5746
916 6381
916 6383
916 6597
916 7629
916 7883
916 8941
916 8958
917 1122
917 1858
917 1935
917 2360
917 2856
917 2993
917 3981
917 4015
917 4062
917 4195
917 6665
917 7317
917 7589
917 7728
917 7791
917 8424
917 8493
917 8536
917 8680
917 9485
917 9939
918 920
918 1113
918 1312
918 1356
918 1422
918 2509
918 3530
918 3717
918 3875
918 4408
918 6914
918 7177
918 7264
918 7361
918 7923
918 9200
918 9444
918 9533
918 9804
919 971
919 1294
919 1863
919 3237
919 3978
919 4052
919 4150
919 4359
919 4512
919 4522
919 4589
919 4762
919 4811
919 5609
919 5689
919 6038
919 6053
919 6974
919 7178
919 7877
919 9173
919 9257
919 9650
920 1634
920 1950
920 2856
920 2916
920 3439
920 3804
920 3896
920 4180
920 4587
920 5272
920 7349
920 8004
920 8197
920 8988
921 1235
921 1497
921 1543
921 2500
921 2518
921 2679
921 3409
921 3694
921 4177
921 4764
921 5121
921 5431
921 5540
921 5613
921 5649
921 6559
921 6957
921 7029
921 7352
921 9033
922 1710
922 2461
922 3150
922 3729
922 4566
922 4577
922 4749
922 4809
922 5001
922 5692
922 6773
922 7513
922 7663
922 7810
922 7864
922 7962
922 8976
923 1157
923 1369
923 2550
923 2650
923 2673
923 2923
923 3072
923 3397
923 3741
923 3920
923 4192
923 4291
923 4646
923 5007
923 5127
923 5414
923 5774
923 5870
923 6275
923 6349
923 6940
923 6998
923 7177
923 7629
923 7789
923 8191
923 8277
923 8768
923 8927
923 9158
923 9877
923 9895
924 1379
924 3489
924 3821
924 4792
924 5135
924 5657
924 6767
924 7741
924 8007
924 8252
925 970
925 988
925 1371
925 2069
925 3337
925 3384
925 4279
925 5195
925 5935
925 6450
925 6796
925 7752
925 8295
925 8650
926 967
926 1689
926 1964
926 3697
926 5517
926 5903
926 6438
926 7515
926 7595
926 8228
927 1035
927 1459
927 1495
927 1920
927 2241
927 2701
927 3095
927 3274
927 3956
927 4116
927 4472
927 4891
927 5537
927 5719
927 5948
927 6489
927 7157
927 7208
927 7585
927 8180
927 8274
927 8566
927 9120
928 931
928 1244
928 1255
928 1660
928 1826
928 4094
928 4337
928 4567
928 4807
928 5222
928 5257
928 6256
928 6423
928 6767
928 6959
928 7800
928 8785
928 8989
928 9015
928 9306
929 936
929 1920
929 3220
929 3570
929 3685
929 5855
929 6003
929 6242
929 6402
929 6445
929 7204
929 8867
929 9596
930 1300
930 3531
930 4592
930 4984
930 5420
930 6220
930 6263
930 6767
930 6800
930 7218
930 7479
930 7497
930 7797
930 8571
930 9024
930 9130
930 9987
931 1165
931 1255
931 1287
931 2076
931 2176
931 2720
931 3199
931 3354
931 4094
931 5229
931 6941
931 7378
931 7557
931 8052
931 8388
931 8785
931 9058
931 9267
931 9306
932 958
932 961
932 1995
932 3119
932 4138
932 4500
932 5116
932 6299
932 7078
932 7774
932 9973
933 1317
933 1839
933 2490
933 4850
933 5370
933 6542
933 7081
933 7360
933 7674
933 7817
933 8024
933 8143
933 8176
933 9534
934 3855
934 5700
934 5964
934 6032
934 6082
934 7449
934 8176
934 8328
934 8882
934 8892
934 9268
934 9348
934 9657
935 984
935 1100
935 1218
935 1517
935 1578
935 1789
935 2222
935 2442
935 2689
935 3032
935 3319
935 3352
935 3657
935 4295
935 4709
935 4842
935 4850
935 4907
935 5136
935 5240
935 6134
935 6322
935 6358
935 6465
935 6944
935 7004
935 7111
935 7594
935 7597
935 7767
935 7933
935 8059
935 8761
935 9065
935 9269
935 9919
936 1364
936 3093
936 3969
936 4263
936 5031
936 5083
936 5944
936 6698
936 7668
936 8648
936 8832
936 9671
937 1417
937 1427
937 1453
937 1564
937 1702
937 1869
937 2000
937 2237
937 2524
937 2847
937 3346
937 3826
937 3882
937 4148
937 4297
937 4313
937 4630
937 4960
937 4962
937 5215
937 5328
937 5620
937 6016
937 6667
937 7446
937 7713
937 7845
937 8033
937 8238
937 8395
937 9079
937 9152
937 9247
937 9258
937 9747
937 9967
938 1416
938 1902
938 1910
938 2072
938 2107
938 2472
938 2713
938 3044
938 3322
938 3374
938 3570
938 3923
938 4640
938 4763
938 5020
938 5441
938 6421
938 6811
938 8063
938 8096
938 8740
939 1372
939 2063
939 2408
939 3670
939 4258
939 5606
939 6041
939 6359
939 6708
939 7237
939 9098
939 9783
940 1153
940 1920
940 2579
940 2588
940 2729
940 2779
940 3089
940 3170
940 4953
940 4989
940 5911
940 6229
940 6758
940 8346
940 8662
940 9383
940 9483
940 9650
940 9946
941 1380
941 1615
941 2461
941 2526
941 5062
941 5907
941 6265
941 6678
941 6792
941 8415
941 9769
941 9885
942 1132
942 1136
942 1396
942 1745
942 1834
942 2072
942 2821
942 2993
942 3388
942 3570
942 3627
942 4551
942 4926
942 5099
942 5254
942 5668
942 5890
942 6539
942 7069
942 7401
942 7942
942 8020
942 8786
942 8946
942 8985
943 1107
943 1838
943 2607
943 2869
943 3379
943 3748
943 3872
943 3923
943 4133
943 5266
943 5314
943 7642
943 7925
943 8233
943 9283
943 9891
944 4321
944 5578
944 6481
944 7622
944 7694
944 8350
944 8414
944 8820
944 9587
944 9716
944 9858
945 1138
945 1175
945 1859
945 1951
945 2487
945 3877
945 5013
945 5654
945 5673
945 6002
945 6534
945 6799
945 6821
945 8087
945 8390
945 9179
946 992
946 998
946 1522
946 1694
946 2444
946 3010
946 3084
946 3376
946 4028
946 4607
946 5173
946 5663
946 5882
946 6217
946 6256
946 6509
946 6514
946 6543
946 6603
946 6962
946 7207
946 7488
946 7571
946 8118
946 8970
946 9403
946 9738
946 9794
946 9915
946 9960
946 9963
947 1626
947 1955
947 2170
947 3210
947 3580
947 6593
947 7256
947 7565
947 8236
947 9276
948 995
948 1105
948 2051
948 2319
948 2331
948 2806
948 2999
948 3059
948 3060
948 3162
948 3992
948 4165
948 4500
948 4680
948 4809
948 5331
948 5448
948 5496
948 5539
948 5840
948 6131
948 6433
948 6813
948 7677
948 8083
948 8603
948 8628
948 8839
948 8884
948 9026
948 9053
948 9327
948 9476
948 9836
949 1507
949 2027
949 2384
949 2571
949 3075
949 3157
949 3172
949 3206
949 3382
949 3721
949 3801
949 3862
949 3902
949 3947
949 4190
949 4235
949 5319
949 5621
949 6502
949 6745
949 7152
949 8021
949 8723
949 8984
949 9226
949 9259
949 9643
950 1076
950 1613
950 2142
950 2146
950 2267
950 3158
950 3608
950 3881
950 4360
950 4487
950 6444
950 7018
950 7064
950 7864
950 8294
950 8482
950 8601
950 8653
950 8791
950 9445
951 1081
951 1123
951 1140
951 1193
951 1250
951 1305
951 1347
951 1467
951 1674
951 1851
951 1941
951 2647
951 2924
951 3252
951 3513
951 3642
951 4035
951 4041
951 4152
951 4419
951 4780
951 5035
951 5112
951 6066
951 6151
951 6220
951 6252
951 6342
951 6489
951 6792
951 7207
951 7222
951 8840
951 8922
951 9131
952 1357
952 1413
952 1520
952 1969
952 2257
952 2379
952 2457
952 2496
952 3239
952 3616
952 3785
952 4405
952 4470
952 4603
952 4755
952 4956
952 5160
952 5540
952 5652
952 5805
952 6077
952 6170
952 6665
952 6725
952 6781
952 6810
952 6951
952 6978
952 7052
952 7065
952 7797
952 8142
952 8507
952 8536
952 8571
952 8866
952 9163
952 9293
952 9628
952 9728
952 9856
953 2017
953 2771
953 2995
953 3179
953 3669
953 4244
953 5329
953 5478
953 5854
953 6423
953 7397
953 7486
953 8133
953 8434
953 9153
953 9407
953 9527
953 9602
953 9915
954 981
954 1936
954 3219
954 3671
954 3827
954 3878
954 4980
954 5052
954 5891
954 5915
954 7970
954 9194
955 973
955 994
955 1720
955 1998
955 2512
955 3097
955 3277
955 3348
955 3761
955 4133
955 4463
955 4514
955 4589
955 7195
955 7600
955 7771
955 8544
955 8653
955 8695
955 9216
955 9542
955 9748
956 1107
956 2440
956 2833
956 2869
956 2911
956 2991
956 4133
956 5314
956 7797
956 7914
956 7986
956 8785
957 2743
957 2972
957 3358
957 3860
957 3887
957 4182
957 4285
957 5826
957 6092
957 6673
957 7410
957 8288
957 8927
957 8988
957 9298
957 9740
958 3404
958 3627
958 3872
958 4769
958 6132
958 6299
958 7017
958 9447
958 9501
959 1303
959 2139
959 2347
959 2764
959 3569
959 4084
959 4795
959 5145
959 5622
959 6604
959 6694
959 7136
959 7783
959 8207
959 9495
959 9909
960 1166
960 2601
960 2903
960 4442
960 4666
960 4949
960 5018
960 5216
960 5230
960 7558
960 8109
960 8842
960 9464
960 9512
960 9595
961 2014
961 3359
961 3492
961 3739
961 4902
961 5799
961 6299
961 6714
961 8403
961 9033
962 1230
962 1300
962 1697
962 1954
962 2059
962 2954
962 3927
962 4655
962 4752
962 5510
962 5542
962 5810
962 6258
962 6645
962 6670
962 6986
962 7356
962 7629
962 8368
962 8664
962 9122
963 1061
963 1196
963 1333
963 1358
963 1424
963 1573
963 1946
963 1972
963 1982
963 2131
963 2272
963 2378
963 2403
963 2838
963 4023
963 4233
963 4494
963 4555
963 4797
963 5344
963 5605
963 6083
963 6207
963 6263
963 6800
963 6925
963 7463
963 7485
963 7688
963 7748
963 7998
963 8490
963 8557
963 8605
963 9190
963 9460
963 9520
963 9750
964 1033
964 1250
964 1463
964 1957
964 3315
964 4985
964 5058
964 6399
964 7957
964 8150
964 9327
964 9489
964 9897
964 9991
965 1374
965 2260
965 2315
965 3643
965 4095
965 4177
965 4229
965 6661
965 7915
965 8025
965 8575
966 1690
966 2838
966 3076
966 5095
966 6013
966 6225
966 9552
966 9675
966 9685
967 1339
967 1420
967 1556
967 1985
967 2242
967 2411
967 2572
967 2830
967 2934
967 3580
967 3972
967 4033
967 4191
967 4794
967 5481
967 5584
967 5922
967 6869
967 7517
967 7686
967 7906
967 8073
967 8125
967 8994
967 9175
967 9188
967 9191
967 9537
967 9866
968 1921
968 1930
968 2722
968 3876
968 4873
968 4876
968 6135
968 6196
968 6210
968 6662
968 7892
968 7923
968 9376
968 9391
969 997
969 1395
969 1529
969 1842
969 2411
969 2695
969 3688
969 3848
969 4034
969 4240
969 4477
969 4491
969 4539
969 5610
969 6467
969 6496
969 6838
969 6933
969 7130
969 7332
969 7406
969 7748
969 7994
969 8179
969 8399
969 8444
969 8531
969 8655
969 9358
969 9512
969 9681
969 9737
970 2484
970 2536
970 2552
970 2760
970 4360
970 4602
970 5065
970 7606
970 7678
970 9449
970 9604
970 9739
970 9832
971 1018
971 1286
971 2757
971 3249
971 4589
971 4992
971 5433
971 6144
971 7178
971 8803
971 8819
971 8869
971 9173
971 9369
972 1222
972 1427
972 1473
972 1832
972 1953
972 2186
972 2271
972 2517
972 3264
972 3800
972 4531
972 5195
972 5706
972 5913
972 6310
972 6482
972 6525
972 7005
972 7199
972 7244
972 7724
972 7882
972 8273
972 8346
972 8363
972 9808
973 1382
973 1419
973 1783
973 2051
973 2818
973 3238
973 3554
973 3652
973 3702
973 3724
973 3961
973 4193
973 4229
973 4537
973 4944
973 5104
973 5363
973 5495
973 5664
973 6090
973 6251
973 6270
973 6362
973 6382
973 6513
973 6518
973 6675
973 7102
973 7276
973 7505
973 7573
973 8449
973 9081
974 2437
974 2780
974 3311
974 4458
974 5240
974 5493
974 6046
974 6061
974 6485
974 6545
974 6823
974 6884
974 7733
974 8351
975 1014
975 1745
975 1829
975 2169
975 3063
975 4061
975 4613
975 4782
975 5046
975 5758
975 6037
975 7849
975 8749
975 9482
976 1466
976 2132
976 3216
976 3649
976 4923
976 5154
976 5619
976 5850
976 5989
976 6742
976 6877
976 8223
976 9150
976 9188
977 1184
977 1224
977 1674
977 1736
977 1844
977 2294
977 2339
977 2501
977 2788
977 2900
977 2902
977 2912
977 3058
977 3356
977 3408
977 3413
977 3436
977 3596
977 3765
977 3825
977 4119
977 5121
977 5226
977 5528
977 5918
977 6461
977 7135
977 7312
977 7603
977 7735
977 8157
977 8910
977 9508
977 9579
977 9585
978 2293
978 3133
978 3824
978 4921
978 5487
978 6268
978 6290
978 7087
978 7721
978 7782
978 8115
978 8832
978 9824
979 2295
979 4799
979 5235
979 5953
979 6544
979 8001
979 8381
979 8441
979 8814
980 1586
980 2576
980 3315
980 4606
980 4812
980 4993
980 5749
980 5833
980 6022
980 7067
980 8045
980 9917
981 1112
981 1574
981 2364
981 2581
981 2712
981 3648
981 3878
981 4851
981 4960
981 4980
981 5023
981 5038
981 5847
981 6029
981 6060
981 6071
981 6325
981 6333
981 6429
981 6785
981 6882
981 7331
981 7382
981 7603
981 8027
981 8210
981 8846
981 8862
981 8976
981 9194
981 9371
981 9465
982 1510
982 1718
982 2047
982 4398
982 5179
982 5301
982 7224
982 7490
982 8938
982 9007
982 9289
983 1292
983 2125
983 3249
983 4026
983 4192
983 5585
983 5806
983 7023
983 7284
983 7384
983 7784
983 8517
983 8535
984 1665
984 1924
984 2130
984 2180
984 3501
984 3625
984 4166
984 7513
984 8478
984 8487
984 8629
984 9013
984 9120
984 9383
984 9656
985 1550
985 1564
985 2297
985 2595
985 2706
985 2935
985 3799
985 3903
985 4006
985 4954
985 5214
985 6106
985 6141
985 7706
985 8361
985 8639
985 9739
986 1460
986 1548
986 1692
986 2300
986 2333
986 2404
986 2421
986 2504
986 2770
986 3037
986 3789
986 3849
986 3968
986 4043
986 4288
986 4435
986 4895
986 4956
986 5091
986 5254
986 5334
986 5493
986 5780
986 5877
986 6250
986 6259
986 6567
986 6619
986 7028
986 7048
986 7165
986 7244
986 7702
986 7720
986 8654
986 9175
986 9264
986 9272
986 9283
986 9298
986 9571
987 1462
987 3651
987 5358
987 5468
987 5606
987 5948
987 6505
987 6740
987 6799
987 7676
987 9393
987 9480
988 2069
988 3578
988 3711
988 4690
988 5255
988 5343
988 5705
988 5941
988 6304
988 6802
988 7214
988 7752
988 7913
988 8230
988 8295
988 8513
988 8525
988 9124
988 9232
989 1222
989 1740
989 1908
989 3019
989 3254
989 3542
989 4126
989 4130
989 4680
989 5612
989 6817
989 6837
989 8558
989 9401
989 9449
990 1299
990 2364
990 2959
990 4212
990 4615
990 5211
990 5633
990 5887
990 6419
990 7566
990 8046
990 8403
990 8422
990 9529
991 1534
991 1696
991 2456
991 2663
991 3028
991 3456
991 3501
991 3510
991 5475
991 5639
991 5692
991 6823
991 6825
991 7733
991 8438
992 1637
992 1841
992 2364
992 2404
992 2756
992 3643
992 4627
992 5058
992 5944
992 7673
993 1809
993 3633
993 4376
993 5226
993 6167
993 6184
993 6455
993 7467
993 8446
994 1466
994 1499
994 1856
994 1962
994 2309
994 2531
994 3243
994 3245
994 3348
994 3409
994 3559
994 4581
994 4988
994 5075
994 5139
994 5220
994 5482
994 5709
994 5863
994 5956
994 6470
994 6474
994 6502
994 6635
994 6781
994 7066
994 7256
994 7277
994 7338
994 7694
994 7945
994 8130
994 8432
994 9146
994 9365
994 9383
994 9764
994 9831
995 2999
995 3068
995 3826
995 4165
995 4800
995 5448
995 5999
995 6635
995 7410
995 8371
995 8839
996 2486
996 3431
996 3554
996 3722
996 3845
996 4018
996 4244
996 4685
996 9067
997 1043
997 1458
997 1805
997 2171
997 2327
997 2570
997 4051
997 4354
997 4461
997 4473
997 4535
997 4980
997 5336
997 5845
997 8127
997 9146
998 1484
998 2309
998 2586
998 3092
998 3513
998 3875
998 4024
998 4327
998 4338
998 4472
998 4483
998 5010
998 5229
998 5302
998 5640
998 5817
998 5937
998 6325
998 6336
998 6480
998 6615
998 7258
998 7299
998 7370
998 7548
998 8241
998 8256
998 8333
998 8417
998 8438
998 8482
998 8671
998 8853
998 9732
998 9942
999 1676
999 1839
999 2125
999 2710
999 2900
999 3062
999 3856
999 4118
999 4120
999 4232
999 5061
999 5410
999 5447
999 5832
999 5973
999 6376
999 6651
999 6652
999 6841
999 6878
999 7173
999 8095
999 8666
999 8812
999 8884
999 8989
999 9323
999 9756
1000 1041
1000 2279
1000 3942
1000 4379
1000 4982
1000 5133
1000 5802
1000 6351
1000 7228
1000 8133
1000 8264
1000 8841
1000 8870
1000 8952
1000 9656
1000 9918
1001 1537
1001 1551
1001 3264
1001 4768
1001 4914
1001 4950
1001 5415
1001 5423
1001 6261
1001 6842
1001 6881
1001 7005
1001 7513
1001 8810
1001 9633
1001 9703
1002 1248
1002 1441
1002 1796
1002 2386
1002 2466
1002 2468
1002 4257
1002 4299
1002 4530
1002 5702
1002 6438
1002 6791
1002 7236
1002 7392
1002 7536
1002 7882
1002 8453
1002 8687
1002 9298
1003 1124
1003 1579
1003 1647
1003 1737
1003 2144
1003 2149
1003 2347
1003 2585
1003 2745
1003 3166
1003 3297
1003 3366
1003 3526
1003 3556
1003 3666
1003 5147
1003 5177
1003 5555
1003 5639
1003 5949
1003 5951
1003 6116
1003 6119
1003 6490
1003 6579
1003 6593
1003 6701
1003 6823
1003 7783
1003 7904
1003 8035
1003 8457
1003 8507
1003 8919
1003 9613
1004 1361
1004 1663
1004 5082
1004 5669
1004 5802
1004 7636
1004 8430
1004 8989
1004 9170
1004 9439
1005 1519
1005 2203
1005 2966
1005 3600
1005 3913
1005 4241
1005 4635
1005 6088
1005 6147
1005 6447
1005 6752
1005 7283
1005 7683
1005 8996
1006 1488
1006 2206
1006 2300
1006 2615
1006 3425
1006 5279
1006 5345
1006 6310
1006 6359
1006 7583
1006 9813
1006 9892
1007 2416
1007 2711
1007 3111
1007 3161
1007 3888
1007 4984
1007 6578
1007 6821
1007 7423
1007 8923
1007 9180
1007 9361
1007 9476
1008 1124
1008 1183
1008 1261
1008 2345
1008 2421
1008 2445
1008 2672
1008 3072
1008 3169
1008 3346
1008 5103
1008 5995
1008 6196
1008 7189
1008 7647
1008 7920
1008 8075
1008 8527
1008 8556
1008 8593
1008 8796
1008 9160
1008 9798
1009 1631
1009 1663
1009 3020
1009 3367
1009 3490
1009 5293
1009 6428
1009 6600
1009 7647
1009 9843
1010 1217
1010 2302
1010 3191
1010 3401
1010 4144
1010 4210
1010 4689
1010 4847
1010 5502
1010 5945
1010 7003
1010 7981
1010 8850
1010 9541
1010 9674
1011 1150
1011 1725
1011 2240
1011 2241
1011 2394
1011 2501
1011 4346
1011 5507
1011 5774
1011 5900
1011 5947
1011 6371
1011 7312
1011 8049
1011 8164
1011 8280
1011 8520
1011 8821
1011 9225
1012 1229
1012 1362
1012 1579
1012 3150
1012 3424
1012 3973
1012 4744
1012 5339
1012 5834
1012 5957
1012 6391
1012 7128
1012 7328
1012 7358
1012 7728
1012 8135
1012 8479
1012 8563
1012 9126
1012 9217
1013 2164
1013 2461
1013 2534
1013 2571
1013 2900
1013 4436
1013 6318
1013 6600
1013 7156
1013 8417
1013 8586
1013 8625
1013 9210
1014 1262
1014 2153
1014 2443
1014 2508
1014 2831
1014 2974
1014 3588
1014 3765
1014 4635
1014 4803
1014 4913
1014 5402
1014 5652
1014 5830
1014 6077
1014 6368
1014 6797
1014 6835
1014 9077
1014 9126
1014 9565
1014 9707
1015 1178
1015 2280
1015 4440
1015 5080
1015 5214
1015 5757
1015 5801
1015 5845
1015 6239
1015 7118
1015 8041
1015 8243
1015 9185
1016 1216
1016 1806
1016 1828
1016 1933
1016 3022
1016 3789
1016 4336
1016 4462
1016 4533
1016 4698
1016 6617
1016 6982
1016 8075
1016 8409
1016 8661
1016 9496
1017 1342
1017 1682
1017 1991
1017 2161
1017 3231
1017 3649
1017 3952
1017 4130
1017 6341
1017 7689
1017 8890
1017 9281
1018 1792
1018 2290
1018 2529
1018 2611
1018 3208
1018 3355
1018 4002
1018 6232
1018 6473
1018 6656
1018 7898
1018 9831
1019 1886
1019 2068
1019 2472
1019 2934
1019 3220
1019 3628
1019 3751
1019 4055
1019 4511
1019 4668
1019 5591
1019 7059
1019 8128
1019 8280
1019 8726
1019 8986
1019 9102
1019 9840
1020 1854
1020 1886
1020 2209
1020 3452
1020 5442
1020 6344
1020 6543
1020 7037
1020 7147
1020 9294
1020 9554
1020 9663
1020 9692
1021 2584
1021 2772
1021 3181
1021 4546
1021 4813
1021 5185
1021 5450
1021 5594
1021 6135
1021 7125
1021 8634
1021 8914
1021 8981
1021 9945
1022 1236
1022 1676
1022 1693
1022 3590
1022 3722
1022 3873
1022 3975
1022 4152
1022 4184
1022 4210
1022 4312
1022 4433
1022 4496
1022 4596
1022 4997
1022 6085
1022 6677
1022 6735
1022 8193
1022 8684
1022 8874
1022 9049
1022 9131
1022 9807
1022 9920
1023 1046
1023 1731
1023 1949
1023 2433
1023 3655
1023 5341
1023 7369
1023 8405
1023 9249
1024 1859
1024 2263
1024 2624
1024 2968
1024 3134
1024 3295
1024 3324
1024 3422
1024 3449
1024 5781
1024 9282
1024 9986
1025 1035
1025 1281
1025 1403
1025 2199
1025 2306
1025 2346
1025 2937
1025 3123
1025 3200
1025 3228
1025 3298
1025 4272
1025 4716
1025 4761
1025 5001
1025 5184
1025 5655
1025 5663
1025 5888
1025 5943
1025 6271
1025 6404
1025 6483
1025 6661
1025 6964
1025 7069
1025 7266
1025 7447
1025 7450
1025 7976
1025 8203
1025 8204
1025 8441
1025 8626
1025 8753
1025 8922
1025 9483
1025 9849
1025 9919
1026 1818
1026 1974
1026 2347
1026 2674
1026 2757
1026 2758
1026 4606
1026 4688
1026 6409
1026 6719
1026 6905
1026 7099
1026 7328
1026 7848
1026 9674
1027 1390
1027 1982
1027 2089
1027 2221
1027 2248
1027 2856
1027 3109
1027 4069
1027 4427
1027 4816
1027 5014
1027 5057
1027 6069
1027 6344
1027 6363
1027 6397
1027 6398
1027 6542
1027 7089
1027 7138
1027 7445
1027 7687
1027 8561
1027 8857
1027 9075
1027 9786
1027 9831
1028 1128
1028 1886
1028 2748
1028 3236
1028 4813
1028 4955
1028 6429
1028 6775
1028 7667
1028 8389
1028 9017
1028 9750
1029 1077
1029 2048
1029 3023
1029 3479
1029 4045
1029 4303
1029 4607
1029 4756
1029 6176
1029 6492
1029 7716
1029 8839
1029 9345
1030 1607
1030 1796
1030 2583
1030 2590
1030 2877
1030 4216
1030 6702
1030 6979
1030 7719
1030 7806
1030 8163
1030 8682
1031 1598
1031 2036
1031 2306
1031 4296
1031 4789
1031 4853
1031 5649
1031 6368
1031 7709
1031 8885
1031 9197
1031 9302
1031 9509
1032 1422
1032 1600
1032 2166
1032 2213
1032 2354
1032 2420
1032 3383
1032 3586
1032 4114
1032 4590
1032 5059
1032 5063
1032 5895
1032 6961
1032 9528
1033 2310
1033 2941
1033 3247
1033 4485
1033 4741
1033 5436
1033 5973
1033 6399
1033 7757
1033 7957
1033 9387
1033 9489
1034 1251
1034 2483
1034 3053
1034 4288
1034 4709
1034 5261
1034 5447
1034 5601
1034 5687
1034 6084
1034 6799
1034 6827
1034 8050
1034 8110
1034 8310
1034 9435
1034 9519
1034 9690
1035 1604
1035 1772
1035 2463
1035 2948
1035 3284
1035 3544
1035 4293
1035 5293
1035 5445
1035 5553
1035 5569
1035 5692
1035 5937
1035 7259
1035 7422
1035 8087
1035 9115
1035 9132
1035 9155
1035 9483
1035 9717
1036 1421
1036 1667
1036 1744
1036 2100
1036 2995
1036 3266
1036 3513
1036 3584
1036 3771
1036 4008
1036 4797
1036 5421
1036 9789
1037 1536
1037 1953
1037 2238
1037 3341
1037 3851
1037 4669
1037 5041
1037 8243
1037 8447
1037 9149
1037 9706
1037 9969
1038 1104
1038 1828
1038 2277
1038 2586
1038 5687
1038 5697
1038 5970
1038 6077
1038 6306
1038 6787
1038 9385
1039 2452
1039 4726
1039 5103
1039 5460
1039 6212
1039 7289
1039 9058
1039 9061
1040 1191
1040 1788
1040 2409
1040 3710
1040 3732
1040 4176
1040 4234
1040 4442
1040 4547
1040 4921
1040 5188
1040 5468
1040 6621
1040 7237
1040 7783
1040 8386
1040 8574
1040 8915
1040 9490
1041 1344
1041 1644
1041 1655
1041 1942
1041 3445
1041 3602
1041 3649
1041 3652
1041 3748
1041 3841
1041 3922
1041 4353
1041 4544
1041 7515
1041 7963
1041 8398
1041 8496
1042 1263
1042 1585
1042 1882
1042 1989
1042 2414
1042 2436
1042 4105
1042 4363
1042 4902
1042 4970
1042 6040
1042 6423
1042 7003
1042 7483
1042 8662
1042 8706
1042 9561
1043 2171
1043 3403
1043 3561
1043 4128
1043 5679
1043 6387
1043 6545
1043 6612
1043 7710
1043 8070
1043 9146
1043 9500
1043 9532
1044 1591
1044 2666
1044 3083
1044 3558
1044 3621
1044 4715
1044 5097
1044 5454
1044 5542
1044 5639
1044 5894
1044 6698
1044 7137
1044 7576
1044 7596
1044 8516
1044 8742
1044 9036
1044 9130
1044 9642
1044 9969
1045 1755
1045 2090
1045 2848
1045 4120
1045 4630
1045 5689
1045 6637
1045 6839
1045 6996
1045 7371
1045 7393
1045 7650
1045 7915
1045 8486
1046 1731
1046 1770
1046 2764
1046 3615
1046 4041
1046 7871
1046 8237
1046 8544
1046 8572
1047 1944
1047 2083
1047 2380
1047 2447
1047 3783
1047 4765
1047 4846
1047 5098
1047 5159
1047 5583
1047 5876
1047 6108
1047 7055
1047 9669
1048 1148
1048 1275
1048 1298
1048 2039
1048 2111
1048 2125
1048 2608
1048 3407
1048 3464
1048 4248
1048 4299
1048 4625
1048 4910
1048 4913
1048 5142
1048 5266
1048 5336
1048 6215
1048 6228
1048 6507
1048 6548
1048 6942
1048 7138
1048 7156
1048 7240
1048 7328
1048 7752
1048 7755
1048 7848
1048 7935
1048 8121
1048 8210
1048 8305
1048 8611
1048 8729
1048 8861
1048 8954
1048 9434
1048 9731
1049 1303
1049 1579
1049 3569
1049 5277
1049 6396
1049 6604
1049 6694
1049 9107
1049 9909
1050 1347
1050 1837
1050 1996
1050 2104
1050 2215
1050 2645
1050 3605
1050 3846
1050 4214
1050 4319
1050 4847
1050 5377
1050 5742
1050 5784
1050 6979
1050 7369
1050 7396
1050 7884
1050 8968
1050 9345
1051 1135
1051 1587
1051 2009
1051 2203
1051 2632
1051 2700
1051 3363
1051 3640
1051 3720
1051 3725
1051 3986
1051 4147
1051 4164
1051 4538
1051 5944
1051 6751
1051 7087
1051 7394
1051 7664
1051 7852
1051 7928
1051 8174
1051 8922
1051 9167
1051 9176
1051 9224
1051 9523
1051 9761
1051 9903
1052 2043
1052 2610
1052 3014
1052 3113
1052 3712
1052 4168
1052 4811
1052 4830
1052 4902
1052 4946
1052 4962
1052 6242
1052 6445
1052 6606
1052 6748
1052 8867
1052 9155
1053 1575
1053 2970
1053 3090
1053 3381
1053 4070
1053 4596
1053 5839
1053 6740
1053 8902
1054 1144
1054 1926
1054 1928
1054 2022
1054 2354
1054 2626
1054 2744
1054 2948
1054 3052
1054 3389
1054 3453
1054 3514
1054 3579
1054 3755
1054 4328
1054 4742
1054 4751
1054 5118
1054 5270
1054 5754
1054 6497
1054 6778
1054 7197
1054 7340
1054 7386
1054 7704
1054 7993
1054 8614
1054 8800
1054 9110
1054 9129
1054 9565
1054 9583
1054 9873
1054 9923
1054 9985
1055 1741
1055 2296
1055 3239
1055 3632
1055 4798
1055 5430
1055 5648
1055 5701
1055 6741
1055 6996
1055 7156
1055 7541
1055 7734
1055 8171
1055 8383
1055 9494
1055 9704
1056 1493
1056 2008
1056 5673
1056 6142
1056 7208
1056 7327
1056 7530
1056 8951
1056 9689
1056 9838
1057 1540
1057 1665
1057 2052
1057 2392
1057 2452
1057 6311
1057 6369
1057 6603
1057 8232
1057 9670
1057 9767
1058 1683
1058 1969
1058 2283
1058 2535
1058 2657
1058 2868
1058 2967
1058 3081
1058 4316
1058 4625
1058 5680
1058 5830
1058 6193
1058 6396
1058 6873
1058 7965
1058 8178
1058 9013
1058 9044
1058 9634
1059 1590
1059 1774
1059 1985
1059 2167
1059 2827
1059 5438
1059 6183
1059 8834
1059 9383
1059 9529
1060 1502
1060 1550
1060 1608
1060 1713
1060 1844
1060 2525
1060 2873
1060 2980
1060 3318
1060 3371
1060 3382
1060 3798
1060 4138
1060 4339
1060 4479
1060 4544
1060 5071
1060 5575
1060 5609
1060 5763
1060 5777
1060 6223
1060 7100
1060 7897
1060 7929
1060 8541
1060 8544
1060 8669
1060 8891
1060 8907
1060 9224
1060 9484
1061 1181
1061 1705
1061 1841
1061 1941
1061 2173
1061 3963
1061 3978
1061 4014
1061 5667
1061 6120
1061 6532
1061 7523
1061 7555
1062 1187
1062 4187
1062 4423
1062 4668
1062 5796
1062 6258
1062 7272
1062 7668
1062 7909
1062 8954
1062 9064
1062 9140
1063 1168
1063 1607
1063 1796
1063 3699
1063 4140
1063 4618
1063 4679
1063 6157
1063 6171
1063 6436
1063 7339
1063 7719
1063 7993
1063 8484
1063 8580
1063 9170
1064 1365
1064 1969
1064 2189
1064 2310
1064 2416
1064 2586
1064 3161
1064 5336
1064 6000
1064 6335
1064 6503
1064 6736
1064 6821
1064 7410
1064 8638
1064 9361
1064 9476
1065 1248
1065 1696
1065 2973
1065 4092
1065 4153
1065 4462
1065 5927
1065 6371
1065 8649
1065 8718
1065 9060
1065 9817
1066 2302
1066 2647
1066 3235
1066 3652
1066 3759
1066 4045
1066 4157
1066 4933
1066 5055
1066 5146
1066 5301
1066 6879
1066 8195
1066 9411
1067 4086
1067 4153
1067 4593
1067 4807
1067 4867
1067 5515
1067 6456
1067 6779
1067 6936
1067 7539
1067 7738
1067 8113
1067 8120
1067 8141
1067 8253
1067 8414
1067 8920
1067 9016
1067 9116
1067 9448
1067 9533
1067 9638
1067 9856
1068 2033
1068 2071
1068 3043
1068 3406
1068 3774
1068 3810
1068 3820
1068 3987
1068 6556
1068 6926
1068 7552
1068 7565
1069 1229
1069 1344
1069 1540
1069 1742
1069 1884
1069 2135
1069 2590
1069 2715
1069 3147
1069 3286
1069 3651
1069 3671
1069 3986
1069 4371
1069 4640
1069 5000
1069 5016
1069 5048
1069 5050
1069 5482
1069 5957
1069 6023
1069 6049
1069 6253
1069 6660
1069 7091
1069 8036
1069 8058
1069 8530
1069 8621
1069 9828
1069 9953
1069 9968
1070 1225
1070 2364
1070 2563
1070 4288
1070 4516
1070 4704
1070 5113
1070 6018
1070 8190
1070 8973
1070 9766
1071 2041
1071 3176
1071 3857
1071 6065
1071 6257
1071 7505
1071 8601
1071 8834
1071 8877
1071 9383
1072 1405
1072 1613
1072 2186
1072 2381
1072 2545
1072 3250
1072 5082
1072 5116
1072 6842
1072 6950
1072 7549
1072 7851
1072 9310
1072 9932
1073 1239
1073 1312
1073 2315
1073 2452
1073 3117
1073 3674
1073 3795
1073 4013
1073 4453
1073 4588
1073 4628
1073 6475
1073 6923
1073 7890
1073 8395
1073 9345
1073 9672
1074 1783
1074 1826
1074 1834
1074 2672
1074 2867
1074 2977
1074 2984
1074 3789
1074 3792
1074 5764
1074 6348
1074 6467
1074 7140
1074 7176
1074 7281
1074 7413
1074 7988
1074 9493
1074 9535
1074 9577
1074 9803
1075 1698
1075 2185
1075 2388
1075 2595
1075 2683
1075 3206
1075 3442
1075 4377
1075 4702
1075 5933
1075 5952
1075 5968
1075 6110
1075 6344
1075 6586
1075 6645
1075 6861
1075 7197
1075 7224
1075 7282
1075 7692
1075 7741
1075 7771
1075 8486
1075 9281
1075 9309
1076 1898
1076 1946
1076 2047
1076 3550
1076 5057
1076 5079
1076 5506
1076 8294
1076 8601
1076 9303
1076 9467
1076 9773
1077 2190
1077 2328
1077 2441
1077 3766
1077 4109
1077 4511
1077 4586
1077 4976
1077 5581
1077 5633
1077 6489
1077 6662
1077 6888
1077 7874
1077 8329
1077 8336
1077 8538
1077 8605
1077 8790
1077 8862
1077 9024
1077 9049
1077 9243
1077 9349
1077 9749
1078 1189
1078 2686
1078 2990
1078 3070
1078 3191
1078 3235
1078 3457
1078 3487
1078 4746
1078 4812
1078 5416
1078 6209
1078 6580
1078 7392
1078 7853
1078 8215
1078 8310
1078 9134
1078 9694
1078 9827
1079 2270
1079 2364
1079 2499
1079 2864
1079 3012
1079 4046
1079 4451
1079 4885
1079 6152
1079 7315
1079 8135
1079 8243
1079 8273
1079 8403
1079 9607
1079 9915
1080 1146
1080 3295
1080 4068
1080 5008
1080 6069
1080 6278
1080 6514
1081 1140
1081 1347
1081 3642
1081 4041
1081 6488
1081 6489
1081 7222
1081 7883
1081 7942
1081 8082
1081 9028
1081 9994
1082 2063
1082 2369
1082 2575
1082 3269
1082 3542
1082 4811
1082 4901
1082 4987
1082 5247
1082 6459
1082 7483
1082 7518
1082 7851
1082 8074
1082 8795
1082 9444
1082 9612
1082 9750
1082 9961
1083 1601
1083 3005
1083 3499
1083 3788
1083 3842
1083 5561
1083 6396
1083 7290
1083 8016
1083 8413
1083 8496
1083 8500
1084 4255
1084 5891
1084 6786
1084 7589
1084 8759
1084 9567
1085 1285
1085 1510
1085 2047
1085 2315
1085 5179
1085 5523
1085 5594
1085 5657
1085 5721
1085 7884
1085 8026
1085 8823
1085 9007
1086 1104
1086 2054
1086 2643
1086 2647
1086 4511
1086 4872
1086 5036
1086 5076
1086 6693
1086 6698
1086 7073
1086 7116
1086 7271
1086 7360
1086 7382
1086 9187
1086 9434
1086 9538
1087 1230
1087 1363
1087 3237
1087 3294
1087 3958
1087 4116
1087 4153
1087 4543
1087 5783
1087 5979
1087 6269
1087 6745
1087 7515
1087 7954
1087 9181
1087 9320
1088 2328
1088 2782
1088 3139
1088 4005
1088 4166
1088 4305
1088 4812
1088 4858
1088 5402
1088 5835
1088 8467
1088 8806
1088 9661
1088 9847
1088 9925
1089 3155
1089 3477
1089 3973
1089 4474
1089 6031
1089 7269
1089 7595
1089 7802
1089 7865
1089 8596
1089 9060
1089 9466
1090 1432
1090 1777
1090 1982
1090 2015
1090 2897
1090 3427
1090 3581
1090 3630
1090 4060
1090 4079
1090 4222
1090 4341
1090 4506
1090 4537
1090 4967
1090 5476
1090 5764
1090 5767
1090 5837
1090 5925
1090 6228
1090 6335
1090 6675
1090 7519
1090 7610
1090 7784
1090 8041
1090 8608
1090 9778
1090 9854
1090 9957
1091 1207
1091 1658
1091 2316
1091 3200
1091 4663
1091 5169
1091 5801
1091 7433
1091 7592
1091 9006
1092 2064
1092 2239
1092 3140
1092 3171
1092 3440
1092 3582
1092 4020
1092 4062
1092 4370
1092 4611
1092 5768
1092 5845
1092 5961
1092 6465
1092 6593
1092 7005
1092 7084
1092 7475
1092 7664
1092 7966
1092 8071
1092 8353
1092 8819
1093 1828
1093 2563
1093 3156
1093 4337
1093 4498
1093 5651
1093 5945
1093 7679
1093 8611
1093 9543
1094 1468
1094 2983
1094 3584
1094 3621
1094 3908
1094 4400
1094 7228
1094 7375
1094 7497
1094 7867
1094 8250
1094 8351
1094 9325
1094 9440
1095 1505
1095 1806
1095 2103
1095 2925
1095 4337
1095 5776
1095 7152
1095 7918
1095 8021
1095 8464
1095 8745
1095 9305
1095 9779
1095 9857
1095 9874
1096 1429
1096 2557
1096 3189
1096 3219
1096 3524
1096 3661
1096 3825
1096 3872
1096 4127
1096 4270
1096 4323
1096 5271
1096 5721
1096 6087
1096 6306
1096 7003
1096 7159
1096 7172
1096 7333
1096 7755
1096 9179
1096 9522
1096 9758
1097 1431
1097 2834
1097 3010
1097 4571
1097 4989
1097 5599
1097 5641
1097 6578
1097 6762
1097 8979
1097 9259
1097 9697
1098 1600
1098 2936
1098 4536
1098 4891
1098 5008
1098 6616
1098 6719
1098 7029
1098 7708
1098 7714
1098 7763
1098 8591
1098 8658
1098 9919
1099 1197
1099 1237
1099 1398
1099 1509
1099 1840
1099 1967
1099 2486
1099 2592
1099 2660
1099 3127
1099 5758
1099 7060
1099 7429
1099 7675
1099 7888
1099 8375
1099 8886
1099 9659
1100 1494
1100 1619
1100 2780
1100 3923
1100 5398
1100 5956
1100 6548
1100 7082
1100 7500
1100 7854
1100 8032
1100 8313
1100 9623
1101 1570
1101 1800
1101 3534
1101 4484
1101 4941
1101 5158
1101 5217
1101 5800
1101 6946
1101 7019
1101 7956
1101 9346
1101 9742
1102 3248
1102 3804
1102 6485
1102 6851
1102 7405
1102 7572
1102 8069
1103 1146
1103 1247
1103 1474
1103 1682
1103 3397
1103 4074
1103 4332
1103 7360
1103 7781
1103 7817
1103 8170
1103 8931
1103 9613
1104 1666
1104 1780
1104 1822
1104 1956
1104 3540
1104 4070
1104 4333
1104 4351
1104 4385
1104 5959
1104 5970
1104 6077
1104 6423
1104 6635
1104 6922
1104 7010
1104 7834
1104 8225
1104 8736
1104 9492
1105 1224
1105 2123
1105 2381
1105 3030
1105 3032
1105 3090
1105 3497
1105 4173
1105 4177
1105 4235
1105 4304
1105 4672
1105 4775
1105 5112
1105 5391
1105 5549
1105 5764
1105 6289
1105 6399
1105 7100
1105 7409
1105 7585
1105 7860
1105 7939
1105 8410
1105 8431
1105 8488
1105 9708
1106 1357
1106 2189
1106 2452
1106 2611
1106 3207
1106 3827
1106 4009
1106 4017
1106 4031
1106 4114
1106 4164
1106 4206
1106 6010
1106 6222
1106 6396
1106 7019
1106 7079
1106 7082
1106 7729
1106 8076
1106 8495
1106 9538
1107 1925
1107 2115
1107 2138
1107 2440
1107 2608
1107 2709
1107 2869
1107 3213
1107 3391
1107 3592
1107 4016
1107 4033
1107 4133
1107 4343
1107 5314
1107 5784
1107 5855
1107 5876
1107 6250
1107 6553
1107 6596
1107 7218
1107 8969
1107 9283
1107 9727
1107 9794
1107 9808
1107 9845
1107 9891
1107 9955
1108 1690
1108 1709
1108 1793
1108 2004
1108 2681
1108 2702
1108 3420
1108 3560
1108 5780
1108 6115
1108 7164
1108 7593
1108 9039
1109 1515
1109 1870
1109 2624
1109 3067
1109 4941
1109 5318
1109 5860
1109 6254
1109 6999
1109 7820
1109 8614
1109 8834
1109 9992
1110 1201
1110 1254
1110 1453
1110 1553
1110 1593
1110 2100
1110 3063
1110 3120
1110 3807
1110 4078
1110 4792
1110 6115
1110 6139
1110 6955
1110 7208
1110 8882
1110 9247
1110 9348
1110 9511
1110 9935
1111 2297
1111 3091
1111 3372
1111 3565
1111 3651
1111 5332
1111 6376
1111 6617
1111 6751
1111 6756
1111 6887
1111 7553
1111 8721
1111 9467
1112 2042
1112 3223
1112 4935
1112 4980
1112 4998
1112 5119
1112 5577
1112 6071
1112 6403
1112 7912
1112 8665
1112 9194
1112 9501
1113 1377
1113 2383
1113 3160
1113 4128
1113 4847
1113 5389
1113 5683
1113 6982
1113 7336
1113 7528
1113 8060
1113 8111
1113 8454
1113 9647
1113 9936
1114 1441
1114 2871
1114 3161
1114 4017
1114 4721
1114 4774
1114 5371
1114 7180
1114 7353
1114 9701
1114 9831
1114 9856
1115 1188
1115 1389
1115 1722
1115 2058
1115 2266
1115 2374
1115 2385
1115 2457
1115 2575
1115 2724
1115 3082
1115 3139
1115 3443
1115 4463
1115 4503
1115 4552
1115 5802
1115 5910
1115 6148
1115 7162
1115 7261
1115 7556
1115 7971
1115 8302
1115 8450
1115 8632
1115 8788
1115 8901
1115 9630
1116 1616
1116 2584
1116 3057
1116 3653
1116 6703
1116 6918
1116 7111
1116 7145
1116 8188
1116 8272
1116 8720
1116 9517
1116 9923
1117 1279
1117 1299
1117 1394
1117 2031
1117 2218
1117 2880
1117 3818
1117 3995
1117 4605
1117 5517
1117 5549
1117 5693
1117 6292
1117 6822
1117 7358
1117 7996
1117 8378
1117 8416
1117 8418
1117 8510
1117 9704
1117 9821
1118 1312
1118 1353
1118 1694
1118 2011
1118 2306
1118 2670
1118 3373
1118 3615
1118 4572
1118 4720
1118 5780
1118 6217
1118 6358
1118 6813
1118 7438
1118 8230
1118 8630
1119 2060
1119 3894
1119 4189
1119 4642
1119 4728
1119 4767
1119 5053
1119 5455
1119 6047
1119 6680
1119 6775
1119 7277
1119 7335
1119 8190
1119 8377
1119 8936
1119 9769
1119 9899
1120 1167
1120 1559
1120 1576
1120 2953
1120 3211
1120 4228
1120 4456
1120 4923
1120 5410
1120 6069
1120 6104
1120 6494
1120 7178
1120 7195
1120 7219
1120 7327
1120 7334
1120 7415
1120 8089
1120 8147
1120 9421
1120 9804
1120 9831
1121 1926
1121 2033
1121 2175
1121 2526
1121 2556
1121 2597
1121 2769
1121 2856
1121 2940
1121 3240
1121 3486
1121 3626
1121 4323
1121 4333
1121 4939
1121 5103
1121 5410
1121 5591
1121 5634
1121 5970
1121 6159
1121 6578
1121 6794
1121 6917
1121 6992
1121 7067
1121 7156
1121 7326
1121 7386
1121 7450
1121 7540
1121 7977
1121 8012
1121 8806
1121 8901
1121 8995
1121 9244
1121 9479
1121 9613
1122 1694
1122 1857
1122 2178
1122 3312
1122 3847
1122 4297
1122 4531
1122 4640
1122 4775
1122 5516
1122 5558
1122 5978
1122 6238
1122 6490
1122 7108
1122 7168
1122 7499
1122 8142
1122 8759
1122 8897
1122 9388
1123 3441
1123 3889
1123 5511
1123 5830
1123 5946
1123 5961
1123 6236
1123 6283
1123 7134
1123 7341
1123 7643
1123 7798
1123 7830
1123 8149
1123 8240
1123 9505
1123 9822
1124 1126
1124 3072
1124 3338
1124 3521
1124 4765
1124 6116
1124 6516
1124 7189
1124 7192
1124 7205
1124 7559
1124 7766
1124 7931
1124 8527
1124 8556
1124 8652
1124 9140
1125 1513
1125 2359
1125 3295
1125 3333
1125 4024
1125 4103
1125 4595
1125 8072
1125 8349
1125 9357
1126 1208
1126 1284
1126 1443
1126 1523
1126 1771
1126 1992
1126 3005
1126 3229
1126 3888
1126 3978
1126 4154
1126 4517
1126 5686
1126 5743
1126 6043
1126 6057
1126 6096
1126 6291
1126 6434
1126 6816
1126 6889
1126 6893
1126 7400
1126 8302
1126 8342
1126 8491
1126 8587
1126 8960
1126 9051
1126 9119
1126 9443
1126 9794
1127 1794
1127 2753
1127 3034
1127 3873
1127 3986
1127 4100
1127 4247
1127 6174
1127 7108
1127 7160
1127 7883
1127 8197
1127 8579
1127 8911
1127 9192
1127 9230
1127 9358
1127 9391
1127 9634
1128 1358
1128 2124
1128 2277
1128 2782
1128 4617
1128 6220
1128 6484
1128 6773
1128 7910
1128 8402
1129 1993
1129 3383
1129 3465
1129 5622
1129 6864
1129 6972
1129 8318
1129 8419
1129 8634
1129 8663
1129 8724
1129 8871
1130 1199
1130 2212
1130 2217
1130 3430
1130 3817
1130 4076
1130 4479
1130 4626
1130 4732
1130 5399
1130 5606
1130 6631
1130 7091
1130 7427
1130 7820
1130 8629
1131 1383
1131 1466
1131 1833
1131 2790
1131 3470
1131 3899
1131 4012
1131 4453
1131 4905
1131 6375
1131 6824
1131 8406
1132 2569
1132 3057
1132 3091
1132 4821
1132 5127
1132 5890
1132 7401
1132 7689
1132 8723
1132 8946
1132 9482
1132 9996
1133 1989
1133 2609
1133 3168
1133 3737
1133 4791
1133 6628
1133 7884
1133 7985
1133 8764
1133 9017
1133 9994
1134 1525
1134 2025
1134 2768
1134 2812
1134 3123
1134 3338
1134 3822
1134 3886
1134 4029
1134 4473
1134 4960
1134 5104
1134 5360
1134 5368
1134 6367
1134 6593
1134 6940
1134 7257
1134 7278
1134 7782
1134 8501
1134 8635
1134 9015
1134 9291
1134 9740
1134 9994
1135 1289
1135 2129
1135 2210
1135 2330
1135 3564
1135 4066
1135 4640
1135 5336
1135 5494
1135 5654
1135 6298
1135 6335
1135 6641
1135 9332
1135 9705
1136 1634
1136 2283
1136 4806
1136 5070
1136 5364
1136 5417
1136 5606
1136 5883
1136 6545
1136 8058
1136 9423
1136 9445
1136 9672
1136 9940
1137 2063
1137 2366
1137 3351
1137 4165
1137 5099
1137 5880
1137 5887
1137 6020
1137 7237
1137 9098
1137 9783
1138 2026
1138 2123
1138 2724
1138 3437
1138 3565
1138 4917
1138 5114
1138 6215
1138 9111
1138 9567
1139 2191
1139 2241
1139 3994
1139 4689
1139 5535
1139 5971
1139 6375
1139 9112
1139 9640
1139 9649
1139 9662
1140 1347
1140 1871
1140 2238
1140 2283
1140 2394
1140 2986
1140 3642
1140 3770
1140 3986
1140 4197
1140 4368
1140 4780
1140 7021
1140 7222
1140 7505
1140 7727
1140 9131
1140 9456
1141 1400
1141 1570
1141 2252
1141 4202
1141 7751
1141 8044
1141 8463
1141 8512
1141 8835
1142 1223
1142 1654
1142 1928
1142 2594
1142 2780
1142 3158
1142 3717
1142 6992
1142 7671
1142 9307
1143 2889
1143 3269
1143 4153
1143 5780
1143 6550
1143 6739
1143 7971
1143 7984
1143 8552
1143 8857
1143 9151
1143 9857
1144 2609
1144 2897
1144 4011
1144 4405
1144 4436
1144 5427
1144 6116
1144 6344
1144 7572
1144 7745
1144 8195
1144 9253
1145 1205
1145 1366
1145 1470
1145 2002
1145 4012
1145 4103
1145 4354
1145 4432
1145 5358
1145 5406
1145 5707
1145 6641
1145 6685
1145 6795
1145 7217
1145 7745
1145 7923
1145 8131
1145 8224
1145 8856
1146 2164
1146 3097
1146 4068
1146 4638
1146 5533
1146 5783
1146 5846
1146 5920
1146 6322
1146 6490
1146 7855
1146 9211
1147 1346
1147 1799
1147 2007
1147 2588
1147 3324
1147 3526
1147 4331
1147 5082
1147 5576
1147 6064
1147 6576
1147 6642
1147 6795
1147 7286
1147 9038
1147 9867
1148 1275
1148 2039
1148 2232
1148 2263
1148 3807
1148 4248
1148 4625
1148 4759
1148 6942
1148 7658
1148 7745
1148 8708
1148 8833
1148 9046
1148 9434
1148 9669
1149 1578
1149 1762
1149 3361
1149 3581
1149 4187
1149 4514
1149 4865
1149 5022
1149 7712
1149 8103
1149 8652
1149 9382
1150 3162
1150 4119
1150 4259
1150 5091
1150 5947
1150 7762
1150 8164
1150 8831
1151 1442
1151 2476
1151 3028
1151 3228
1151 3564
1151 3618
1151 4177
1151 4788
1151 4913
1151 4955
1151 5270
1151 8043
1151 8365
1151 8599
1151 9814
1152 1359
1152 1521
1152 1949
1152 1982
1152 2253
1152 2713
1152 3140
1152 3709
1152 4092
1152 4260
1152 4397
1152 4403
1152 5342
1152 6313
1152 6529
1152 7703
1152 7960
1152 7993
1152 8515
1152 8745
1152 9315
1152 9421
1152 9946
1153 3025
1153 3525
1153 3671
1153 4134
1153 4805
1153 5582
1153 6181
1153 8454
1153 9299
1153 9494
1154 1253
1154 2487
1154 3360
1154 3645
1154 3671
1154 4736
1154 5095
1154 5193
1154 5240
1154 5285
1154 5362
1154 5801
1154 6454
1154 7279
1154 7691
1154 8233
1154 8977
1154 9141
1155 1439
1155 1513
1155 2290
1155 3349
1155 4314
1155 5225
1155 5412
1155 5997
1155 6002
1155 6137
1155 6481
1155 7091
1155 8588
1155 8861
1155 9489
1156 1997
1156 2816
1156 2866
1156 3046
1156 3356
1156 4541
1156 7588
1156 8329
1156 8388
1156 8771
1156 9228
1157 2514
1157 3606
1157 5275
1157 5877
1157 6305
1157 6617
1157 6735
1157 6915
1157 6942
1157 7057
1157 7538
1157 8840
1157 8885
1157 9036
1157 9223
1158 1271
1158 1572
1158 1815
1158 2017
1158 2664
1158 2771
1158 2995
1158 3669
1158 5177
1158 6258
1158 6598
1158 8054
1158 8181
1158 8227
1158 8289
1158 8986
1158 9153
1158 9995
1159 2081
1159 2477
1159 3095
1159 3940
1159 6819
1159 7168
1159 7964
1159 9281
1159 9821
1159 9994
1160 1596
1160 1817
1160 3633
1160 4382
1160 4766
1160 5310
1160 5732
1160 5766
1160 6008
1160 6523
1160 6593
1160 8069
1161 1244
1161 2582
1161 2674
1161 3908
1161 4526
1161 4596
1161 5580
1161 6267
1161 6664
1161 6901
1161 7629
1161 8609
1161 8646
1161 9103
1161 9517
1162 1569
1162 1854
1162 2051
1162 2954
1162 3353
1162 3534
1162 4045
1162 4753
1162 4775
1162 5673
1162 5762
1162 6355
1162 6432
1162 6490
1162 7040
1162 7564
1162 8857
1162 9117
1162 9231
1162 9551
1163 1212
1163 2579
1163 3176
1163 3187
1163 3768
1163 3781
1163 4489
1163 6399
1163 7591
1163 9148
1164 1178
1164 1256
1164 1261
1164 1522
1164 2188
1164 2514
1164 2704
1164 3059
1164 3095
1164 3625
1164 4097
1164 7021
1164 7782
1164 8319
1164 9542
1164 9764
1165 1445
1165 2002
1165 3171
1165 4333
1165 6151
1165 6583
1165 6685
1165 7923
1165 8191
1165 9017
1166 1815
1166 2107
1166 3299
1166 3881
1166 5562
1166 7922
1166 8842
1166 9464
1166 9640
1166 9838
1167 1424
1167 2466
1167 2545
1167 3211
1167 3926
1167 4228
1167 4651
1167 6159
1167 6728
1167 6846
1167 7219
1168 1607
1168 2073
1168 3437
1168 4216
1168 4377
1168 4679
1168 5150
1168 6295
1168 6598
1168 8332
1168 9176
1168 9997
1169 1427
1169 1936
1169 2241
1169 2388
1169 2418
1169 2727
1169 3206
1169 3407
1169 4081
1169 4638
1169 5337
1169 6084
1169 6698
1169 6815
1169 6987
1169 7170
1169 7952
1169 9344
1170 1788
1170 3075
1170 3150
1170 3315
1170 3860
1170 3928
1170 4413
1170 6744
1170 6895
1170 6970
1170 7461
1170 9209
1171 1948
1171 2881
1171 3250
1171 4926
1171 5198
1171 5354
1171 6843
1171 9143
1172 1423
1172 1638
1172 1811
1172 2917
1172 4204
1172 4210
1172 5864
1172 6493
1172 6554
1172 6578
1172 6616
1172 7463
1172 7721
1172 8046
1172 8446
1173 1709
1173 2059
1173 3560
1173 4812
1173 5572
1173 5780
1173 7757
1173 8195
1173 8367
1173 9039
1173 9042
1173 9208
1174 2386
1174 2753
1174 4106
1174 6956
1174 7328
1174 7635
1174 8000
1174 8379
1174 8557
1174 8750
1174 8964
1174 9132
1175 2280
1175 3034
1175 3362
1175 3671
1175 3972
1175 4084
1175 5605
1175 5684
1175 6490
1175 6647
1175 7494
1175 7759
1175 8382
1175 8391
1175 9153
1175 9919
1175 9997
1176 1849
1176 2360
1176 2821
1176 3610
1176 3806
1176 5153
1176 6355
1176 6783
1176 7460
1176 8393
1176 8836
1177 1306
1177 1312
1177 2346
1177 4199
1177 5333
1177 5840
1177 6013
1177 6263
1177 6441
1177 7142
1177 7159
1177 7768
1177 7980
1177 9697
1178 1247
1178 1365
1178 1498
1178 2915
1178 3166
1178 3264
1178 3437
1178 4440
1178 4713
1178 6239
1178 7172
1178 7582
1178 8419
1178 8569
1178 9185
1178 9368
1178 9985
1179 1659
1179 2456
1179 3076
1179 3536
1179 3767
1179 3951
1179 4279
1179 4333
1179 5516
1179 5821
1179 5984
1179 7863
1179 9005
1179 9105
1179 9418
1179 9541
1179 9682
1179 9797
1179 9879
1180 1673
1180 1776
1180 2033
1180 2385
1180 2428
1180 2442
1180 2900
1180 3080
1180 3092
1180 3465
1180 3730
1180 4454
1180 4870
1180 5739
1180 6026
1180 6496
1180 7256
1180 8482
1180 8653
1180 8660
1180 9173
1180 9258
1180 9479
1180 9540
1180 9974
1181 1615
1181 1905
1181 3628
1181 3637
1181 4154
1181 4161
1181 4420
1181 4807
1181 4998
1181 5183
1181 5296
1181 5581
1181 6242
1181 6540
1181 8272
1181 8928
1181 9894
1181 9951
1182 2398
1182 5801
1182 5985
1182 6020
1182 6417
1182 7143
1182 7484
1182 7698
1182 8941
1182 9594
1183 1573
1183 1683
1183 1826
1183 1961
1183 2406
1183 3055
1183 3093
1183 3309
1183 3512
1183 3828
1183 4323
1183 4422
1183 4550
1183 4623
1183 4923
1183 6653
1183 6693
1183 7230
1183 7363
1183 7394
1183 7563
1183 7585
1183 9291
1184 1844
1184 2784
1184 2902
1184 3525
1184 3913
1184 5319
1184 5404
1184 5550
1184 6283
1184 7603
1184 8630
1184 9050
1185 1499
1185 1920
1185 2192
1185 2226
1185 3150
1185 3485
1185 3678
1185 4623
1185 4661
1185 5689
1185 6574
1185 7328
1185 8250
1186 1209
1186 1724
1186 2448
1186 2498
1186 2759
1186 3104
1186 3324
1186 3476
1186 3639
1186 4058
1186 4228
1186 4560
1186 4655
1186 4717
1186 4856
1186 4921
1186 5236
1186 5481
1186 5661
1186 5748
1186 5823
1186 6164
1186 6328
1186 8006
1186 8193
1186 8514
1186 8990
1186 9136
1186 9364
1186 9657
1186 9875
1186 9948
1187 1328
1187 1330
1187 1814
1187 1988
1187 2109
1187 2125
1187 2412
1187 2624
1187 2987
1187 3082
1187 3729
1187 4081
1187 4316
1187 5103
1187 5334
1187 5904
1187 6282
1187 6312
1187 6395
1187 6736
1187 7153
1187 7383
1187 8405
1187 9201
1187 9503
1187 9527
1187 9556
1188 1475
1188 2798
1188 2813
1188 3000
1188 4425
1188 5120
1188 6844
1188 9637
1188 9669
1188 9715
1189 2686
1189 3220
1189 3457
1189 5416
1189 7665
1189 8548
1189 9134
1189 9423
1189 9631
1189 9827
1190 1793
1190 2005
1190 2009
1190 4125
1190 5091
1190 5652
1190 6648
1190 7023
1190 7442
1190 7573
1190 7575
1190 7625
1190 8051
1190 8130
1190 8443
1190 8593
1191 3177
1191 3629
1191 4530
1191 6263
1191 6621
1191 6860
1191 7613
1191 8386
1191 9358
1191 9630
1191 9654
1192 1404
1192 1684
1192 2124
1192 3418
1192 4568
1192 4913
1192 5254
1192 5379
1192 8307
1192 8941
1193 1352
1193 3048
1193 3140
1193 3215
1193 3291
1193 3334
1193 4405
1193 4753
1193 5400
1193 5510
1193 6427
1193 7108
1193 7515
1193 7709
1193 9236
1194 2786
1194 4347
1194 4364
1194 5017
1194 5432
1194 7117
1194 7578
1194 8750
1195 1359
1195 1972
1195 2867
1195 2887
1195 3359
1195 3774
1195 3940
1195 4151
1195 4632
1195 4854
1195 5809
1195 6043
1195 6430
1195 6582
1195 7236
1195 7537
1195 7626
1195 7805
1195 8704
1195 8893
1195 9331
1196 1731
1196 1738
1196 1863
1196 2070
1196 2100
1196 4048
1196 4429
1196 5854
1196 5907
1196 5996
1196 6960
1196 7068
1196 7658
1196 8144
1196 8672
1197 1237
1197 1437
1197 1509
1197 1840
1197 2592
1197 3127
1197 3747
1197 3919
1197 4302
1197 4630
1197 6132
1197 6534
1197 7245
1197 7369
1197 7400
1197 7675
1197 8039
1197 8146
1197 8187
1197 8206
1197 8359
1197 8528
1197 9958
1198 1233
1198 1252
1198 1289
1198 1460
1198 2174
1198 3101
1198 3456
1198 3489
1198 3553
1198 3760
1198 3859
1198 3912
1198 3918
1198 3967
1198 4023
1198 4402
1198 4654
1198 4964
1198 5265
1198 6061
1198 6451
1198 6653
1198 6736
1198 6894
1198 7618
1198 7831
1198 7846
1198 8456
1198 8681
1198 8698
1198 9103
1198 9131
1198 9204
1198 9209
1198 9325
1198 9434
1198 9468
1198 9599
1199 2884
1199 3349
1199 3430
1199 3863
1199 4096
1199 4626
1199 5406
1199 6005
1199 6228
1200 1396
1200 1865
1200 2004
1200 2579
1200 2585
1200 2908
1200 3055
1200 3230
1200 3450
1200 3487
1200 3784
1200 3814
1200 3954
1200 4763
1200 6041
1200 6612
1200 7088
1200 7189
1200 7413
1200 7551
1200 8878
1200 9159
1200 9663
1200 9690
1200 9744
1201 1936
1201 2003
1201 2254
1201 3120
1201 3366
1201 3873
1201 5438
1201 7062
1201 7424
1201 8442
1201 8653
1201 9494
1201 9511
1201 9935
1202 2608
1202 4070
1202 4767
1202 5418
1202 5506
1202 5671
1202 7077
1202 7514
1202 8376
1202 9293
1202 9393
1203 3022
1203 4357
1203 4646
1203 5147
1203 5186
1203 5215
1203 5340
1203 5612
1203 6228
1203 7800
1203 7910
1203 7928
1203 8328
1203 9731
1204 1294
1204 3020
1204 3960
1204 5611
1204 6428
1204 6550
1204 6867
1204 7021
1204 8793
1204 9224
1205 1218
1205 1755
1205 3344
1205 4024
1205 4926
1205 5637
1205 6151
1205 6685
1205 7745
1205 7923
1205 8075
1205 9885
1206 1546
1206 1628
1206 1790
1206 3472
1206 3500
1206 4949
1206 5272
1206 6079
1206 6560
1206 8964
1207 1658
1207 2767
1207 4063
1207 4432
1207 4463
1207 4485
1207 5355
1207 5736
1207 5753
1207 5854
1207 6986
1207 7592
1207 7799
1207 8929
1207 9325
1207 9442
1208 4749
1208 5417
1208 5515
1208 5803
1208 5815
1208 6699
1208 7138
1208 9823
1209 2072
1209 2590
1209 2883
1209 3019
1209 3659
1209 4456
1209 5238
1209 6579
1209 7535
1209 7683
1209 8956
1209 9653
1210 1253
1210 1565
1210 2058
1210 2196
1210 2487
1210 2564
1210 3087
1210 3896
1210 6240
1210 6408
1210 7719
1210 8933
1210 9185
1211 3059
1211 3233
1211 3273
1211 3495
1211 3942
1211 4208
1211 5587
1211 5786
1211 5888
1211 6971
1211 7267
1211 7424
1211 8715
1211 9123
1211 9493
1212 1750
1212 1819
1212 1828
1212 1863
1212 1881
1212 2200
1212 2464
1212 2465
1212 2553
1212 3165
1212 3276
1212 3513
1212 4025
1212 4272
1212 4566
1212 4842
1212 4896
1212 4897
1212 5317
1212 5721
1212 6599
1212 6779
1212 6818
1212 7730
1212 7774
1212 7984
1212 8281
1212 8362
1212 8603
1212 8652
1212 8950
1212 9587
1212 9614
1212 9725
1213 1645
1213 3119
1213 3446
1213 3525
1213 4129
1213 4270
1213 5202
1213 5263
1213 7100
1213 8346
1213 8428
1213 8540
1213 9145
1213 9679
1214 1487
1214 1688
1214 2897
1214 3098
1214 3702
1214 4916
1214 5331
1214 6060
1214 6332
1214 6554
1214 7513
1214 8156
1214 8192
1214 9581
1215 2031
1215 2681
1215 2931
1215 3682
1215 3797
1215 3880
1215 3953
1215 3970
1215 4021
1215 4022
1215 4131
1215 4614
1215 4642
1215 4677
1215 5001
1215 5084
1215 5328
1215 5508
1215 5629
1215 5962
1215 6198
1215 6856
1215 7010
1215 7757
1215 7980
1215 8032
1215 8046
1215 8370
1215 9932
1215 9938
1216 1677
1216 1843
1216 2252
1216 3732
1216 3757
1216 4251
1216 4530
1216 5584
1216 5918
1216 6152
1216 6160
1216 6282
1216 6313
1216 6482
1216 6703
1216 6841
1216 7492
1216 7745
1216 7823
1216 8751
1216 9731
1216 9779
1216 9998
1217 1505
1217 1833
1217 3606
1217 5252
1217 5719
1217 5827
1217 7327
1217 8619
1217 9360
1218 2260
1218 2567
1218 3644
1218 3749
1218 4523
1218 5359
1218 5795
1218 6660
1218 7009
1218 7241
1218 7429
1218 8258
1218 8307
1218 8428
1218 9481
1219 2628
1219 3114
1219 4474
1219 5332
1219 6415
1219 7859
1219 7979
1219 9426
1220 1403
1220 1932
1220 2054
1220 2090
1220 2218
1220 2798
1220 2911
1220 3711
1220 4528
1220 4782
1220 5051
1220 5238
1220 5355
1220 5368
1220 5413
1220 7760
1220 9865
1220 9971
1221 1409
1221 1498
1221 2001
1221 2051
1221 2316
1221 3431
1221 4151
1221 4719
1221 5298
1221 5508
1221 5535
1221 6621
1221 7153
1221 7545
1221 8440
1221 8672
1221 9123
1221 9961
1222 1532
1222 1832
1222 1953
1222 2271
1222 3233
1222 3616
1222 3800
1222 4607
1222 5606
1222 5706
1222 5900
1222 6431
1222 6544
1222 7130
1222 7199
1222 8346
1222 9820
1223 1439
1223 2331
1223 2594
1223 3158
1223 3616
1223 3840
1223 5058
1223 5178
1223 5586
1223 6632
1223 6992
1223 7067
1223 7485
1223 7677
1223 8243
1223 8494
1223 8834
1224 1451
1224 1832
1224 2797
1224 2916
1224 3030
1224 3224
1224 4988
1224 5401
1224 5712
1224 6123
1224 6972
1224 7765
1224 9000
1224 9279
1224 9853
1225 1352
1225 1406
1225 1993
1225 4351
1225 4490
1225 4573
1225 4958
1225 5537
1225 5544
1225 6490
1225 6925
1225 6972
1225 8318
1225 8421
1225 8429
1225 9592
1226 1379
1226 1806
1226 2675
1226 3548
1226 4662
1226 5155
1226 5256
1226 5305
1226 5935
1226 6507
1226 8416
1226 8676
1226 8845
1226 9467
1227 1772
1227 1979
1227 2219
1227 2495
1227 2661
1227 3213
1227 3832
1227 3868
1227 4952
1227 6116
1227 6479
1227 6536
1227 6637
1227 7006
1227 7385
1227 7642
1227 9357
1227 9367
1227 9579
1227 9856
1228 1373
1228 2297
1228 2979
1228 3751
1228 3896
1228 3973
1228 4431
1228 4571
1228 5041
1228 5485
1228 6329
1228 7148
1228 7172
1228 9628
1229 1562
1229 1615
1229 1680
1229 1866
1229 2058
1229 2255
1229 2421
1229 2453
1229 2802
1229 3002
1229 3087
1229 3129
1229 3572
1229 3628
1229 3868
1229 4113
1229 4754
1229 5161
1229 5529
1229 5893
1229 6603
1229 6943
1229 7245
1229 8156
1229 8288
1229 8486
1229 8752
1229 8759
1229 8908
1229 9180
1230 1341
1230 2594
1230 3234
1230 3980
1230 4083
1230 5779
1230 6269
1230 7816
1230 9320
1230 9902
1231 1680
1231 1771
1231 2225
1231 2606
1231 3577
1231 3966
1231 4153
1231 4780
1231 7851
1231 8072
1231 8804
1231 8822
1231 8982
1231 9218
1232 1845
1232 2049
1232 2120
1232 2640
1232 3007
1232 3194
1232 4352
1232 5102
1232 6313
1232 6784
1232 6878
1232 7090
1232 7382
1232 7776
1232 9005
1233 1663
1233 1744
1233 2374
1233 2432
1233 2519
1233 2566
1233 2702
1233 2715
1233 2933
1233 3591
1233 3959
1233 4656
1233 4794
1233 4858
1233 5547
1233 6077
1233 6091
1233 7363
1233 7587
1233 8088
1233 9668
1233 9813
1233 9940
1234 1620
1234 2012
1234 2998
1234 3743
1234 4745
1234 5468
1234 5680
1234 6404
1234 6414
1234 6654
1234 7089
1234 8196
1234 8522
1234 8526
1234 8758
1234 9901
1235 1974
1235 3202
1235 3351
1235 3694
1235 4221
1235 5732
1235 6626
1235 7029
1235 7479
1235 8653
1235 8660
1235 8723
1235 9719
1235 9857
1236 2487
1236 3099
1236 3206
1236 4520
1236 4551
1236 5901
1236 6018
1236 7125
1236 7961
1237 2829
1237 2935
1237 3042
1237 3576
1237 3827
1237 4136
1237 5235
1237 6591
1237 7114
1237 7675
1238 1348
1238 1696
1238 1809
1238 5097
1238 8207
1238 8897
1238 9041
1238 9387
1239 1600
1239 1732
1239 3126
1239 4453
1239 4781
1239 4874
1239 6201
1239 6877
1239 8180
1239 8395
1239 9184
1239 9455
1239 9672
1240 2727
1240 5477
1240 6078
1240 7533
1240 7984
1240 8886
1241 2290
1241 2965
1241 4068
1241 4499
1241 5846
1241 5920
1241 5935
1241 6299
1241 7842
1241 9978
1242 1254
1242 1801
1242 1936
1242 1971
1242 2328
1242 2765
1242 4308
1242 5783
1242 6654
1242 7289
1242 7496
1242 7672
1242 7833
1242 8576
1242 8933
1242 9422
1243 1511
1243 1665
1243 2005
1243 2899
1243 3208
1243 6748
1243 6837
1243 7044
1243 8545
1243 9848
1243 9874
1244 1324
1244 3632
1244 3860
1244 4726
1244 4970
1244 4998
1244 5023
1244 5211
1244 5932
1244 9070
1244 9458
1244 9562
1245 1461
1245 1548
1245 2280
1245 3473
1245 4430
1245 4634
1245 4879
1245 4994
1245 5866
1245 6011
1245 6150
1245 6153
1245 7031
1245 7697
1245 7864
1245 8129
1245 8714
1245 8945
1245 9047
1245 9161
1245 9288
1245 9466
1246 1681
1246 2685
1246 2805
1246 3815
1246 5328
1246 5682
1246 7477
1246 7648
1246 8960
1246 9607
1246 9882
1247 1344
1247 1654
1247 2099
1247 2176
1247 2312
1247 2383
1247 2672
1247 2810
1247 3099
1247 3217
1247 3388
1247 4392
1247 4558
1247 4824
1247 5101
1247 5141
1247 5371
1247 5459
1247 5510
1247 5516
1247 5522
1247 5758
1247 5888
1247 6081
1247 6233
1247 7392
1247 8807
1247 9556
1248 1406
1248 1444
1248 2468
1248 3463
1248 3469
1248 3763
1248 3797
1248 3893
1248 4130
1248 5496
1248 5781
1248 5830
1248 6590
1248 7032
1248 7392
1248 8055
1248 8143
1248 8659
1248 8687
1248 9153
1248 9568
1248 9928
1249 1471
1249 1550
1249 2202
1249 2620
1249 3628
1249 3709
1249 3963
1249 4889
1249 5076
1249 6185
1249 6884
1249 7358
1249 7977
1249 7983
1249 8237
1249 8833
1249 8899
1249 9218
1249 9791
1250 1466
1250 1487
1250 1547
1250 1688
1250 1842
1250 2299
1250 2527
1250 3554
1250 5565
1250 5681
1250 5990
1250 6399
1250 8938
1250 9581
1251 2005
1251 3372
1251 6517
1251 7108
1251 7238
1251 7843
1251 8108
1251 8484
1251 8907
1251 9316
1251 9863
1252 1305
1252 1968
1252 2279
1252 2324
1252 2835
1252 4356
1252 5058
1252 5101
1252 5248
1252 5766
1252 5935
1252 6340
1252 6862
1252 6905
1252 7266
1252 7703
1252 7745
1252 7932
1252 8284
1252 8537
1253 1263
1253 1440
1253 1565
1253 1727
1253 2487
1253 3378
1253 3915
1253 5016
1253 5810
1253 6408
1253 6805
1253 8265
1253 8775
1253 8875
1253 9819
1253 9922
1253 9944
1254 1431
1254 1520
1254 2115
1254 2209
1254 2390
1254 2510
1254 4141
1254 4146
1254 4293
1254 4993
1254 5276
1254 6103
1254 6929
1254 6933
1254 7137
1254 7341
1254 7633
1254 8027
1254 8155
1254 8214
1254 8492
1254 8647
1254 8921
1254 9161
1254 9947
1255 2186
1255 2535
1255 2584
1255 3536
1255 4094
1255 7030
1255 7670
1255 7718
1255 8777
1255 9022
1255 9306
1256 1608
1256 1715
1256 1943
1256 2129
1256 2188
1256 2704
1256 3081
1256 3095
1256 3097
1256 3228
1256 3364
1256 3497
1256 3821
1256 4198
1256 4596
1256 5011
1256 5033
1256 5108
1256 5532
1256 7100
1256 8127
1256 8319
1256 8355
1256 8802
1256 9443
1257 2427
1257 4823
1257 5696
1257 5776
1257 6479
1257 6836
1257 6986
1257 8113
1257 8521
1258 2005
1258 2768
1258 3372
1258 3773
1258 4119
1258 4262
1258 4793
1258 4865
1258 5848
1258 6626
1258 7010
1258 7200
1258 8108
1258 8907
1259 1999
1259 2560
1259 2841
1259 3585
1259 3842
1259 3954
1259 6412
1259 7553
1259 7801
1259 7886
1259 9408
1259 9918
1260 1501
1260 3244
1260 3668
1260 5476
1260 6796
1260 7465
1260 8076
1260 9270
1260 9600
1260 9604
1261 1941
1261 2198
1261 2469
1261 3058
1261 4512
1261 6450
1261 6859
1261 7527
1261 7748
1261 7806
1261 8681
1261 9240
1261 9434
1261 9918
1262 1357
1262 2354
1262 2418
1262 2831
1262 3412
1262 3656
1262 3806
1262 6355
1262 6835
1262 6995
1262 8223
1262 9453
1262 9565
1262 9787
1262 9864
1263 1378
1263 2112
1263 2550
1263 2635
1263 3494
1263 3570
1263 3660
1263 3686
1263 4265
1263 4555
1263 5832
1263 5900
1263 6655
1263 6880
1263 7341
1263 7486
1263 7621
1263 7815
1263 7878
1263 8201
1263 8223
1263 8309
1263 8393
1263 8741
1263 8806
1263 9125
1263 9377
1263 9410
1263 9942
1263 9946
1264 1347
1264 1468
1264 1947
1264 2419
1264 3137
1264 3508
1264 4103
1264 4508
1264 5302
1264 5675
1264 5924
1264 7372
1264 9442
1264 9779
1265 1386
1265 1521
1265 1862
1265 3079
1265 3645
1265 3665
1265 3769
1265 4094
1265 4603
1265 4946
1265 6578
1265 7109
1265 7483
1265 8191
1265 8351
1265 8361
1265 8442
1265 8625
1265 8704
1265 8832
1265 9108
1266 1754
1266 1808
1266 2743
1266 3520
1266 3679
1266 4066
1266 5110
1266 5636
1266 6206
1266 7085
1266 8233
1266 9426
1266 9895
1267 1489
1267 2902
1267 4081
1267 4137
1267 4912
1267 5233
1267 5756
1267 8362
1267 8930
1267 9325
1267 9653
1267 9752
1268 1660
1268 1739
1268 1854
1268 2899
1268 3849
1268 3882
1268 5328
1268 5702
1268 8305
1268 8372
1268 9327
1269 1833
1269 1835
1269 1854
1269 2052
1269 3882
1269 3884
1269 3912
1269 4697
1269 5729
1269 5780
1269 6418
1269 8119
1269 8395
1269 8891
1269 9802
1270 1380
1270 1447
1270 2362
1270 2956
1270 3215
1270 4575
1270 4759
1270 5161
1270 5932
1270 7893
1270 8452
1270 8456
1270 9285
1271 1330
1271 2416
1271 3724
1271 5023
1271 5186
1271 5394
1271 6780
1271 6813
1271 7075
1271 7299
1271 7349
1271 7724
1271 7774
1271 9243
1272 1437
1272 2345
1272 2900
1272 3735
1272 4538
1272 4567
1272 4664
1272 4919
1272 5241
1272 5714
1272 5765
1272 6734
1272 6957
1272 8318
1272 9777
1273 2027
1273 2192
1273 2674
1273 3299
1273 3966
1273 5424
1273 5505
1273 5615
1273 6367
1273 6693
1273 6897
1273 7480
1273 7673
1273 7691
1273 8667
1273 9005
1274 1750
1274 4737
1274 4826
1274 5396
1274 6160
1274 6825
1274 6969
1274 7283
1274 7679
1274 7790
1274 8383
1275 1452
1275 2039
1275 2098
1275 3237
1275 4189
1275 4248
1275 4625
1275 6942
1275 7261
1275 7523
1275 7776
1275 9434
1276 2239
1276 2268
1276 2749
1276 2890
1276 3048
1276 4648
1276 5054
1276 5464
1276 5678
1276 6301
1276 9036
1276 9702
1277 1450
1277 1870
1277 2452
1277 2555
1277 3045
1277 3594
1277 3661
1277 4061
1277 4380
1277 4633
1277 5242
1277 5507
1277 6771
1277 6888
1277 7862
1277 9740
1278 1605
1278 1737
1278 2221
1278 2240
1278 2294
1278 2702
1278 4089
1278 5137
1278 5597
1278 5610
1278 6205
1278 7098
1278 7469
1278 8058
1278 8484
1278 8824
1278 9282
1278 9640
1279 2048
1279 2852
1279 3118
1279 4773
1279 6033
1279 7486
1279 8110
1279 8760
1279 9763
1279 9801
1280 1735
1280 2608
1280 3000
1280 3930
1280 4707
1280 6474
1280 7280
1280 7640
1280 8670
1280 9558
1281 2650
1281 2721
1281 2782
1281 3993
1281 4550
1281 5107
1281 5193
1281 6007
1281 7949
1281 8327
1281 8815
1281 9757
1281 9969
1281 9985
1282 1342
1282 1568
1282 2478
1282 2826
1282 2983
1282 4129
1282 4204
1282 4218
1282 4485
1282 4645
1282 4698
1282 4763
1282 6707
1282 6864
1282 7930
1282 8089
1282 8559
1283 1691
1283 2067
1283 2347
1283 2776
1283 2824
1283 3148
1283 4239
1283 4794
1283 6941
1283 9033
1284 1348
1284 1632
1284 1690
1284 1886
1284 1927
1284 2047
1284 2457
1284 2897
1284 3426
1284 3593
1284 4952
1284 7593
1284 7684
1284 7706
1284 8232
1284 8993
1284 9187
1284 9835
1285 1811
1285 2575
1285 3335
1285 5351
1285 6731
1285 7528
1285 7596
1285 8248
1285 8870
1286 1530
1286 1727
1286 1988
1286 2341
1286 2546
1286 2639
1286 3144
1286 3228
1286 4284
1286 4634
1286 4652
1286 4731
1286 5056
1286 5605
1286 6491
1286 6566
1286 6626
1286 6987
1286 7296
1286 7661
1286 7847
1286 8204
1286 8391
1286 8627
1286 8649
1286 8720
1286 9076
1286 9404
1286 9408
1286 9674
1286 9755
1287 1361
1287 2534
1287 3162
1287 3242
1287 3400
1287 3881
1287 3968
1287 4029
1287 4439
1287 4446
1287 4781
1287 4833
1287 4853
1287 4970
1287 4981
1287 5166
1287 5422
1287 5657
1287 5743
1287 5808
1287 6048
1287 6255
1287 6941
1287 7397
1287 7550
1287 7693
1287 7785
1287 7971
1287 9544
1288 2264
1288 2327
1288 2842
1288 2946
1288 2961
1288 3589
1288 3881
1288 4270
1288 5170
1288 6866
1288 7385
1288 7630
1288 7757
1288 8634
1288 8781
1288 9257
1289 1792
1289 2079
1289 2129
1289 2330
1289 2627
1289 3787
1289 4066
1289 4231
1289 5061
1289 5248
1289 5521
1289 6084
1289 6641
1289 9211
1289 9759
1290 1936
1290 2940
1290 3013
1290 4947
1290 6457
1290 6922
1290 8398
1290 9088
1290 9707
1291 1770
1291 4682
1291 6218
1291 8134
1291 8988
1291 9958
1292 1398
1292 1448
1292 1782
1292 2028
1292 2086
1292 2194
1292 2324
1292 2389
1292 2530
1292 2946
1292 3438
1292 3896
1292 4098
1292 4247
1292 4430
1292 4514
1292 5052
1292 5101
1292 5127
1292 5159
1292 5194
1292 5402
1292 5675
1292 6046
1292 6207
1292 6583
1292 6611
1292 6713
1292 6760
1292 6776
1292 7193
1292 7697
1292 7915
1292 8691
1292 8755
1292 8757
1292 8779
1292 9325
1292 9363
1292 9763
1293 2191
1293 3195
1293 3269
1293 3532
1293 3727
1293 3772
1293 4153
1293 4182
1293 5263
1293 5404
1293 5696
1293 6075
1293 6371
1293 6417
1293 6518
1293 6550
1293 6739
1293 7977
1293 9104
1293 9713
1293 9728
1294 1473
1294 1570
1294 2933
1294 3023
1294 3386
1294 3621
1294 4536
1294 4876
1294 5382
1294 7473
1294 8148
1294 8243
1294 8407
1294 8839
1295 1613
1295 2130
1295 2925
1295 3083
1295 5359
1295 5494
1295 5513
1295 5795
1295 6637
1295 7429
1295 8132
1295 8307
1296 2043
1296 2064
1296 2225
1296 2303
1296 2615
1296 3356
1296 3410
1296 3737
1296 3807
1296 4601
1296 4630
1296 4881
1296 5020
1296 5652
1296 5733
1296 5973
1296 5987
1296 6339
1296 6399
1296 7005
1296 7124
1296 7130
1296 7437
1296 7502
1296 7586
1296 7642
1296 7888
1296 7999
1296 8149
1296 8381
1296 8692
1296 8726
1296 8960
1296 9320
1296 9736
1296 9780
1297 3552
1297 4186
1297 4760
1297 4937
1297 6208
1297 6229
1297 6230
1297 7249
1297 8851
1297 9470
1297 9902
1298 1907
1298 1990
1298 2292
1298 2714
1298 2789
1298 3139
1298 4821
1298 6465
1298 8422
1298 8650
1298 9903
1299 1342
1299 1517
1299 2499
1299 2523
1299 2544
1299 3167
1299 3248
1299 3514
1299 3650
1299 4013
1299 4993
1299 5164
1299 5173
1299 5435
1299 6494
1299 6927
1299 7120
1299 7136
1299 7396
1299 8247
1299 8347
1299 9406
1299 9890
1300 1887
1300 2039
1300 2159
1300 2587
1300 2970
1300 3067
1300 3301
1300 3569
1300 3790
1300 3803
1300 3894
1300 4348
1300 4367
1300 4866
1300 5068
1300 5682
1300 5684
1300 6097
1300 6466
1300 6656
1300 7328
1300 7920
1300 8209
1300 8531
1300 9450
1300 9586
1301 1619
1301 2106
1301 2536
1301 2548
1301 3318
1301 3866
1301 3982
1301 5398
1301 5864
1301 5907
1301 7544
1301 9132
1301 9401
1301 9982
1302 1305
1302 1683
1302 1748
1302 1793
1302 1904
1302 2358
1302 2843
1302 3167
1302 3618
1302 3693
1302 4695
1302 4723
1302 4955
1302 5154
1302 5178
1302 5476
1302 6135
1302 6373
1302 7021
1302 7207
1302 7358
1302 8085
1302 8142
1302 8315
1302 8599
1303 1926
1303 2075
1303 2122
1303 2159
1303 2647
1303 3421
1303 3497
1303 3569
1303 3658
1303 4529
1303 5145
1303 6463
1303 7413
1303 7802
1303 8129
1303 9119
1303 9495
1303 9834
1303 9909
1304 1380
1304 1397
1304 1629
1304 1631
1304 3572
1304 4536
1304 4538
1304 4561
1304 5514
1304 6010
1304 6183
1304 6385
1304 7338
1304 7429
1304 7536
1304 7959
1304 8645
1304 9447
1304 9492
1305 2013
1305 2091
1305 2360
1305 3215
1305 3448
1305 3660
1305 3774
1305 3783
1305 3794
1305 5730
1305 5766
1305 7355
1305 7650
1305 8276
1305 8284
1305 8564
1306 1312
1306 1965
1306 2153
1306 2656
1306 2934
1306 3939
1306 5442
1306 6441
1306 6452
1306 6721
1306 6968
1306 7702
1306 7768
1306 8467
1306 8721
1306 9697
1306 9891
1307 2580
1307 2658
1307 3693
1307 4101
1307 4626
1307 4790
1307 5553
1307 8434
1307 9988
1308 1402
1308 1548
1308 2211
1308 3110
1308 3585
1308 4162
1308 4587
1308 5458
1308 5552
1308 5961
1308 6677
1308 6753
1308 7587
1308 8058
1308 8184
1308 8626
1309 4602
1309 5778
1309 6486
1309 7898
1309 8043
1309 9801
1310 3237
1310 3383
1310 3447
1310 4120
1310 5523
1310 6465
1310 7191
1310 7454
1310 8812
1311 2061
1311 3282
1311 3559
1311 3760
1311 4638
1311 4680
1311 5272
1311 5664
1311 6846
1311 7473
1311 7625
1311 8262
1311 8455
1312 1828
1312 2897
1312 2976
1312 3190
1312 3551
1312 3639
1312 3939
1312 4077
1312 4867
1312 5628
1312 5838
1312 5844
1312 5921
1312 6263
1312 6274
1312 6441
1312 7287
1312 7430
1312 7768
1312 7812
1312 7928
1312 8145
1312 8527
1312 9118
1312 9172
1312 9187
1312 9309
1312 9318
1312 9333
1312 9416
1312 9487
1312 9697
1313 2107
1313 2121
1313 3439
1313 3446
1313 5988
1313 6797
1313 7190
1313 7546
1313 7811
1314 3589
1314 3736
1314 4827
1314 6437
1314 6972
1314 7055
1314 7369
1314 9498
1314 9831
1315 1422
1315 2025
1315 2636
1315 3161
1315 3198
1315 3621
1315 3652
1315 5310
1315 6314
1315 6399
1315 7455
1315 7482
1315 7813
1315 8047
1315 8696
1315 9728
1316 3014
1316 3283
1316 3331
1316 5038
1316 5109
1316 6607
1316 6726
1316 7799
1316 7933
1316 8228
1316 8481
1316 9442
1316 9974
1317 1403
1317 1990
1317 2473
1317 2570
1317 2835
1317 3101
1317 4579
1317 5692
1317 5836
1317 6395
1317 6711
1317 7360
1317 7618
1317 7740
1317 7781
1317 7817
1317 7832
1317 8567
1317 8685
1317 8947
1317 9196
1317 9582
1318 1383
1318 2173
1318 3470
1318 5226
1318 5304
1318 6375
1318 7911
1318 8223
1318 9778
1319 1844
1319 1885
1319 2270
1319 2339
1319 2635
1319 2744
1319 3208
1319 3243
1319 3543
1319 3673
1319 4468
1319 4918
1319 5050
1319 5103
1319 5580
1319 5752
1319 5915
1319 6280
1319 6722
1319 6852
1319 7156
1319 7306
1319 7548
1319 7619
1319 8247
1319 9001
1319 9126
1319 9316
1320 1998
1320 2121
1320 2778
1320 3626
1320 4432
1320 4588
1320 5021
1320 5733
1320 6939
1320 7275
1320 7844
1320 8094
1320 8136
1320 8416
1320 8456
1320 8957
1320 9034
1320 9267
1320 9783
1320 9800
1321 1712
1321 1865
1321 1972
1321 2048
1321 2099
1321 2203
1321 2305
1321 2920
1321 3623
1321 3706
1321 4434
1321 4723
1321 4776
1321 5057
1321 5560
1321 5599
1321 6179
1321 6450
1321 7038
1321 7302
1321 7385
1321 7820
1321 7844
1321 8225
1321 8298
1321 8426
1321 8858
1321 9075
1321 9433
1321 9597
1321 9955
1322 1418
1322 1612
1322 3077
1322 3412
1322 3495
1322 4251
1322 5496
1322 6201
1322 6344
1322 6581
1322 6872
1322 8202
1322 8665
1322 9656
1322 9670
1323 1971
1323 2780
1323 5668
1323 6329
1323 7285
1323 7613
1323 7661
1323 7765
1323 7778
1323 7986
1323 9213
1324 4204
1324 5368
1324 6001
1324 6128
1324 6877
1324 7228
1324 7240
1324 7363
1324 7520
1324 7627
1324 8182
1324 8376
1324 9116
1324 9178
1324 9242
1324 9399
1324 9674
1324 9863
1325 1494
1325 3404
1325 3946
1325 4692
1325 5158
1325 6426
1325 7319
1325 7864
1325 8331
1325 8780
1325 9732
1326 1413
1326 1486
1326 1547
1326 1948
1326 2642
1326 3250
1326 4993
1326 5445
1326 6843
1326 8150
1326 9045
1326 9684
1327 1530
1327 2481
1327 4672
1327 5406
1327 5722
1327 6559
1327 7508
1327 8942
1327 9607
1327 9801
1328 1795
1328 1871
1328 2624
1328 2706
1328 2939
1328 3139
1328 3198
1328 3474
1328 3488
1328 4361
1328 4366
1328 4571
1328 5100
1328 5213
1328 5844
1328 6314
1328 7071
1328 7589
1328 7751
1328 7794
1328 7799
1328 7961
1328 8452
1328 9428
1328 9429
1328 9924
1328 9991
1329 1445
1329 1550
1329 2050
1329 3287
1329 3297
1329 4802
1329 5047
1329 5061
1329 5388
1329 5507
1329 5654
1329 6382
1329 7224
1329 7324
1329 7662
1329 7914
1329 8638
1329 8794
1329 9663
1330 1671
1330 1760
1330 1934
1330 2313
1330 2507
1330 2546
1330 3029
1330 3306
1330 3419
1330 3769
1330 5122
1330 5167
1330 5616
1330 5975
1330 6387
1330 6443
1330 7577
1330 7704
1330 7936
1330 8141
1330 9055
1330 9493
1331 2174
1331 4128
1331 5087
1331 5088
1331 7038
1331 7542
1331 8044
1331 8505
1331 9859
1331 9954
1332 1858
1332 2598
1332 2838
1332 4767
1332 4771
1332 5366
1332 5418
1332 7172
1332 7509
1332 8298
1332 8686
1333 2403
1333 3119
1333 3840
1333 4023
1333 4436
1333 4797
1333 5777
1333 5907
1333 6027
1333 6188
1333 6418
1333 6992
1333 7463
1333 9914
1334 1634
1334 1684
1334 1721
1334 2085
1334 2189
1334 5469
1334 6155
1334 6862
1334 6974
1334 7176
1334 7559
1334 7840
1334 7913
1334 8053
1334 8428
1334 8849
1334 9089
1334 9517
1334 9751
1334 9981
1335 1932
1335 4067
1335 5596
1335 6677
1335 8060
1335 8274
1335 8740
1335 8903
1335 9183
1335 9437
1335 9934
1336 3076
1336 3313
1336 4900
1336 5626
1336 6085
1336 6322
1336 6399
1336 6905
1336 6959
1336 7358
1336 8480
1336 8625
1336 9483
1336 9973
1337 1490
1337 3235
1337 3475
1337 3639
1337 4032
1337 4418
1337 6327
1337 6651
1337 7535
1337 7670
1337 8649
1337 9202
1337 9243
1338 1925
1338 1926
1338 2170
1338 3380
1338 4378
1338 7233
1338 7244
1338 7277
1338 8171
1338 8307
1338 8444
1338 8766
1338 8793
1338 9874
1339 2969
1339 3064
1339 3169
1339 3191
1339 5311
1339 5922
1339 8649
1339 8994
1340 2456
1340 3929
1340 4059
1340 4558
1340 5445
1340 6046
1340 6437
1340 6632
1340 6712
1340 6823
1340 6856
1340 7228
1340 7300
1340 7510
1340 7536
1340 8024
1340 8943
1341 2034
1341 3190
1341 3477
1341 4418
1341 4557
1341 6359
1341 6878
1341 9058
1341 9696
1342 2630
1342 3008
1342 3056
1342 3090
1342 3737
1342 3870
1342 4429
1342 4461
1342 4513
1342 4939
1342 5093
1342 5332
1342 5395
1342 5869
1342 6012
1342 7009
1342 7038
1342 7162
1342 7518
1342 7833
1342 7839
1342 8032
1342 8203
1342 8262
1342 9009
1342 9499
1343 2577
1343 2701
1343 3748
1343 3876
1343 4404
1343 4471
1343 5719
1343 6441
1343 6483
1343 7169
1343 7361
1343 7694
1343 7964
1343 8228
1343 9145
1344 1786
1344 2176
1344 2328
1344 2840
1344 3399
1344 3835
1344 4111
1344 4234
1344 4593
1344 5101
1344 5930
1344 6233
1344 6860
1344 7397
1344 7696
1344 7710
1344 7878
1344 8209
1344 8251
1344 8807
1344 8808
1344 9478
1344 9750
1344 9911
1345 1829
1345 2237
1345 2641
1345 2743
1345 2798
1345 2813
1345 4134
1345 4425
1345 4905
1345 5120
1345 5440
1345 7034
1346 1387
1346 1620
1346 1694
1346 1799
1346 2007
1346 2491
1346 2588
1346 3113
1346 3199
1346 3786
1346 4868
1346 5087
1346 5178
1346 5576
1346 6079
1346 6110
1346 6231
1346 6313
1346 6407
1346 6553
1346 6572
1346 6576
1346 6593
1346 6852
1346 7103
1346 7220
1346 7286
1346 7384
1346 7622
1346 7773
1346 8063
1346 8989
1346 9459
1346 9661
1347 2205
1347 2326
1347 2356
1347 2733
1347 2792
1347 3642
1347 4041
1347 4525
1347 4780
1347 4907
1347 5914
1347 5934
1347 6112
1347 6489
1347 6793
1347 7071
1347 7222
1347 7667
1347 7677
1347 7998
1347 8221
1347 8679
1347 8794
1347 8905
1347 9085
1347 9131
1347 9157
1347 9730
1347 9757
1347 9960
1348 1470
1348 1809
1348 2900
1348 2993
1348 3384
1348 3832
1348 4521
1348 6053
1348 7080
1348 7341
1348 8328
1348 8445
1348 8897
1348 9602
1349 2086
1349 2535
1349 5444
1349 6231
1349 7855
1349 7910
1349 9731
1350 2753
1350 3838
1350 4541
1350 4702
1350 6116
1350 6221
1350 6789
1350 6805
1350 7082
1350 7308
1350 8195
1350 9665
1351 1438
1351 1855
1351 2705
1351 3394
1351 4057
1351 4217
1351 5278
1351 5985
1351 7868
1351 8116
1351 8926
1351 9088
1351 9636
1352 1710
1352 2180
1352 2516
1352 2626
1352 3161
1352 3274
1352 3461
1352 4146
1352 4382
1352 4532
1352 4536
1352 4747
1352 5203
1352 5313
1352 5557
1352 5582
1352 5636
1352 5683
1352 5831
1352 6120
1352 6441
1352 6759
1352 6901
1352 7431
1352 7459
1352 7503
1352 7926
1352 8228
1352 8548
1352 8583
1352 8959
1352 9340
1352 9379
1352 9981
1353 2116
1353 2309
1353 2679
1353 2941
1353 4105
1353 4276
1353 5056
1353 5362
1353 5746
1353 5828
1353 6347
1353 6524
1353 6909
1353 7173
1353 7609
1353 7617
1353 8476
1353 8757
1353 8811
1353 9433
1354 2252
1354 2756
1354 3213
1354 3259
1354 3635
1354 3793
1354 4658
1354 5028
1354 5081
1354 6055
1354 6450
1354 6451
1354 6616
1354 6903
1354 7078
1354 7085
1354 7223
1354 7718
1354 8133
1354 8349
1354 8802
1354 8961
1354 9079
1354 9607
1354 9653
1354 9708
1354 9921
1355 1918
1355 3244
1355 4226
1355 5746
1355 6793
1355 7760
1355 7959
1355 8157
1355 8251
1355 8696
1355 8759
1356 1956
1356 2216
1356 2727
1356 5497
1356 6756
1356 7119
1356 7264
1356 7895
1356 9444
1357 3036
1357 5045
1357 6072
1357 6330
1357 6365
1357 8108
1357 8580
1357 9898
1357 9950
1358 1539
1358 2124
1358 2277
1358 2469
1358 2814
1358 2971
1358 3001
1358 3561
1358 3837
1358 3869
1358 4440
1358 4995
1358 4999
1358 5521
1358 6277
1358 6366
1358 6408
1358 6484
1358 6505
1358 6693
1358 6841
1358 6971
1358 7910
1358 8242
1358 8348
1358 9065
1358 9303
1358 9866
1358 9872
1359 1621
1359 1838
1359 2158
1359 2542
1359 2555
1359 2772
1359 2887
1359 2925
1359 3096
1359 4151
1359 4724
1359 5480
1359 6693
1359 7199
1359 7250
1359 7626
1359 8191
1359 8250
1360 1751
1360 2263
1360 3409
1360 3482
1360 3945
1360 4781
1360 5225
1360 5296
1360 5330
1360 6529
1360 6920
1360 8549
1360 9509
1361 2314
1361 2617
1361 2940
1361 3108
1361 3400
1361 3897
1361 4578
1361 4590
1361 4641
1361 4781
1361 4878
1361 4981
1361 5166
1361 5657
1361 5684
1361 6048
1361 6054
1361 6860
1361 7397
1361 7635
1361 7741
1361 7971
1361 8003
1361 8680
1361 9008
1361 9408
1362 1411
1362 1578
1362 2119
1362 2852
1362 3471
1362 3864
1362 3959
1362 3961
1362 4068
1362 4744
1362 5388
1362 5867
1362 6391
1362 7328
1362 7677
1362 7942
1362 8020
1362 9139
1362 9210
1362 9385
1363 4083
1363 4543
1363 5954
1363 6269
1363 7154
1363 7817
1363 8028
1363 8058
1363 8448
1363 9320
1363 9628
1363 9916
1364 1751
1364 2127
1364 2266
1364 2838
1364 3516
1364 3695
1364 3930
1364 4531
1364 5031
1364 5085
1364 5257
1364 5537
1364 5855
1364 7278
1364 7668
1364 7803
1364 8220
1364 8832
1364 9141
1364 9735
1365 1596
1365 1876
1365 2947
1365 3354
1365 3570
1365 4333
1365 5687
1365 5724
1365 8206
1365 8606
1366 1611
1366 1827
1366 2159
1366 2585
1366 2967
1366 3047
1366 3098
1366 3296
1366 3406
1366 3522
1366 3531
1366 3651
1366 3851
1366 4093
1366 4177
1366 4723
1366 4914
1366 5421
1366 5527
1366 5751
1366 7041
1366 7161
1366 7252
1366 7322
1366 7750
1366 7760
1366 7799
1366 8270
1366 8701
1366 8850
1366 8865
1366 9230
1366 9268
1366 9340
1366 9414
1367 1410
1367 1752
1367 1836
1367 2511
1367 4263
1367 7122
1367 7378
1367 7554
1367 7977
1368 1447
1368 2287
1368 2969
1368 3355
1368 3564
1368 3788
1368 3842
1368 4701
1368 4845
1368 4922
1368 5561
1368 5688
1368 7244
1368 8099
1368 8299
1368 8834
1369 1523
1369 1703
1369 2416
1369 2463
1369 2562
1369 2577
1369 2629
1369 2707
1369 2806
1369 3035
1369 3118
1369 3447
1369 3637
1369 3733
1369 3919
1369 4116
1369 4147
1369 4309
1369 4379
1369 4470
1369 4758
1369 5119
1369 5234
1369 5428
1369 5887
1369 6163
1369 6248
1369 6528
1369 6863
1369 7075
1369 7241
1369 7575
1369 7601
1369 8204
1369 8342
1369 8511
1369 8929
1369 9240
1369 9451
1369 9647
1369 9831
1370 1562
1370 1972
1370 2355
1370 2364
1370 2773
1370 5446
1370 7314
1370 7486
1370 7811
1370 8143
1370 8943
1370 9189
1371 1746
1371 2793
1371 3920
1371 4076
1371 4247
1371 4834
1371 4847
1371 5883
1371 6372
1371 7424
1371 9649
1372 2205
1372 2494
1372 2627
1372 3005
1372 3687
1372 3707
1372 5218
1372 6091
1372 6103
1372 6601
1372 7549
1372 7816
1372 8574
1372 8863
1372 9269
1373 2979
1373 3973
1373 4571
1373 4910
1373 4958
1373 5058
1373 5505
1373 6695
1373 7172
1373 7395
1373 7610
1374 1914
1374 2315
1374 2999
1374 3472
1374 4095
1374 5704
1374 6331
1374 6605
1374 6842
1374 6937
1374 7200
1374 8575
1375 2827
1375 4368
1375 4654
1375 5425
1375 7314
1375 7757
1375 7804
1375 8281
1375 8767
1375 9054
1376 1872
1376 2714
1376 2837
1376 3351
1376 3619
1376 5409
1376 5558
1376 6777
1376 9045
1376 9450
1377 1549
1377 1573
1377 1775
1377 1985
1377 2065
1377 2369
1377 2871
1377 3198
1377 3347
1377 3751
1377 4461
1377 4500
1377 5127
1377 5143
1377 5366
1377 5384
1377 5419
1377 5460
1377 5658
1377 5888
1377 5920
1377 6010
1377 6341
1377 6493
1377 6698
1377 6754
1377 7063
1377 7504
1377 7636
1377 8120
1377 8196
1377 8441
1377 9273
1377 9288
1377 9330
1377 9378
1377 9511
1377 9757
1378 2519
1378 3007
1378 4471
1378 5164
1378 5536
1378 6444
1378 9630
1379 2092
1379 2360
1379 3821
1379 4462
1379 4792
1379 6406
1379 7300
1379 7586
1379 7949
1379 8394
1379 8461
1380 1418
1380 1999
1380 2341
1380 2361
1380 2437
1380 2546
1380 2829
1380 2934
1380 2961
1380 3033
1380 3120
1380 3285
1380 3510
1380 3619
1380 5032
1380 5105
1380 5930
1380 6046
1380 6183
1380 7044
1380 7338
1380 7737
1380 7823
1380 7979
1380 8561
1380 8939
1380 9175
1380 9447
1380 9492
1380 9682
1380 9940
1381 2089
1381 2409
1381 2810
1381 3250
1381 3484
1381 4821
1381 5384
1381 5471
1381 5936
1381 6387
1381 6526
1381 6607
1381 7027
1381 7145
1381 7509
1381 7563
1381 7672
1381 7914
1381 7969
1381 8043
1381 8181
1381 8182
1381 8832
1381 8951
1381 9173
1381 9623
1381 9703
1381 9897
1382 2315
1382 2556
1382 2583
1382 2966
1382 3238
1382 4537
1382 5095
1382 5363
1382 5952
1382 6362
1382 6467
1382 6675
1382 7194
1382 8299
1382 9081
1382 9564
1383 2605
1383 2780
1383 2790
1383 3451
1383 3470
1383 3718
1383 4354
1383 4650
1383 5074
1383 5344
1383 5443
1383 6375
1383 6700
1383 6824
1383 7077
1383 8293
1383 8497
1383 8567
1383 9028
1383 9268
1383 9502
1384 1736
1384 4214
1384 4572
1384 4921
1384 5220
1384 5362
1384 6302
1384 6776
1384 8115
1384 8276
1384 8683
1384 8833
1384 9406
1385 1989
1385 3119
1385 3138
1385 4689
1385 4788
1385 5422
1385 5482
1385 6575
1385 7007
1385 9288
1385 9444
1385 9862
1386 1672
1386 2052
1386 2716
1386 3543
1386 4018
1386 4365
1386 4436
1386 4680
1386 4989
1386 5560
1386 6046
1386 6482
1386 6771
1386 7667
1386 7672
1386 7767
1386 8000
1386 8085
1386 8860
1386 9098
1386 9228
1386 9934
1387 1536
1387 1643
1387 1729
1387 2238
1387 4893
1387 5737
1387 5797
1387 6523
1387 6825
1387 8369
1387 9149
1388 2942
1388 4728
1388 5714
1388 6465
1388 6910
1388 6925
1388 7025
1388 7438
1388 8154
1388 8852
1388 8969
1389 1453
1389 2201
1389 2779
1389 4109
1389 4126
1389 4458
1389 4460
1389 5504
1389 6332
1389 6837
1389 7372
1389 7723
1389 8217
1389 8527
1389 8556
1389 8557
1389 8970
1389 9978
1390 1473
1390 3088
1390 3718
1390 4030
1390 4302
1390 4419
1390 4843
1390 4902
1390 5816
1390 5891
1390 5907
1390 6246
1390 6695
1390 8230
1391 1811
1391 2025
1391 2149
1391 3351
1391 3768
1391 4051
1391 5315
1391 5597
1391 6190
1391 6565
1391 7008
1391 8890
1391 9141
1391 9617
1392 2486
1392 2979
1392 3563
1392 3762
1392 4913
1392 5152
1392 5308
1392 5681
1392 6547
1392 7143
1392 7528
1392 8041
1392 9518
1392 9826
1392 9884
1393 1632
1393 2310
1393 2928
1393 3204
1393 4269
1393 5476
1393 5570
1393 6181
1393 6514
1393 6871
1393 8194
1393 8656
1393 8861
1393 9208
1394 1493
1394 1760
1394 1789
1394 1835
1394 2218
1394 2512
1394 2587
1394 2623
1394 2977
1394 3336
1394 4061
1394 4238
1394 4410
1394 4864
1394 5333
1394 5829
1394 6285
1394 6305
1394 6698
1394 6770
1394 7339
1394 7928
1394 8099
1394 8102
1394 8276
1394 9037
1394 9244
1394 9363
1394 9604
1394 9880
1395 1572
1395 1842
1395 2418
1395 2960
1395 4539
1395 5597
1395 6019
1395 6276
1395 6467
1395 6625
1395 6741
1395 6821
1395 6933
1395 7535
1395 8220
1395 8473
1395 9681
1396 2466
1396 2490
1396 2550
1396 2968
1396 3107
1396 3196
1396 3547
1396 3556
1396 3612
1396 3976
1396 4791
1396 5225
1396 5405
1396 5443
1396 5637
1396 5782
1396 6479
1396 9721
1397 2755
1397 2890
1397 2912
1397 2916
1397 3014
1397 3150
1397 3266
1397 3842
1397 5094
1397 6443
1397 6773
1397 7442
1397 7780
1397 7954
1397 9275
1397 9376
1397 9377
1398 1414
1398 2004
1398 2659
1398 2711
1398 2953
1398 4007
1398 4140
1398 5158
1398 5429
1399 1491
1399 2930
1399 3070
1399 3097
1399 3957
1399 5406
1399 5443
1399 6776
1399 7537
1399 7937
1399 8737
1400 3000
1400 3501
1400 5015
1400 5701
1400 5702
1400 8581
1401 1602
1401 2714
1401 4598
1401 4691
1401 4846
1401 5530
1401 6465
1401 6777
1401 7009
1401 7486
1401 9110
1401 9180
1401 9938
1402 3585
1402 3606
1402 4632
1402 5773
1402 6402
1402 6540
1402 6753
1402 9435
1403 1706
1403 2054
1403 2856
1403 3485
1403 3586
1403 3904
1403 3910
1403 4217
1403 4822
1403 5066
1403 8318
1403 8366
1403 8533
1403 8683
1403 8722
1403 9085
1403 9179
1403 9208
1403 9908
1404 1755
1404 1955
1404 2170
1404 2370
1404 4280
1404 6019
1404 6114
1404 7063
1404 7108
1404 7444
1404 8033
1404 8236
1404 8287
1404 9132
1404 9885
1404 9973
1405 1613
1405 2186
1405 2310
1405 3429
1405 4418
1405 4995
1405 6314
1405 6624
1405 6842
1405 8082
1405 9310
1406 1653
1406 1859
1406 1872
1406 2278
1406 2413
1406 2753
1406 2920
1406 2933
1406 2975
1406 3067
1406 3159
1406 3363
1406 3523
1406 3713
1406 3830
1406 4036
1406 4353
1406 4409
1406 4644
1406 4771
1406 5746
1406 6145
1406 6164
1406 6241
1406 6481
1406 6533
1406 7396
1406 8542
1406 8894
1406 8961
1406 9314
1406 9845
1407 1449
1407 2691
1407 2951
1407 3437
1407 3612
1407 3882
1407 4437
1407 4734
1407 5048
1407 5315
1407 6633
1407 6916
1407 7070
1407 8289
1408 2108
1408 3478
1408 4707
1408 5114
1408 5478
1408 6475
1408 7158
1408 7167
1408 7671
1408 7866
1408 8936
1408 9558
1408 9750
1409 2745
1409 3287
1409 3527
1409 4824
1409 6171
1409 6332
1409 6680
1409 7501
1409 8102
1409 8112
1409 8117
1409 9820
1410 1444
1410 4689
1410 5594
1410 5865
1410 6575
1410 6668
1410 7088
1410 7585
1410 7786
1411 1817
1411 1852
1411 2239
1411 4648
1411 5464
1411 6077
1411 6111
1411 7840
1411 9036
1412 3044
1412 4770
1412 5242
1412 5476
1412 5493
1412 6317
1412 6545
1412 6744
1412 6745
1412 8352
1412 8467
1412 8806
1412 9644
1413 1572
1413 2415
1413 2570
1413 2612
1413 3100
1413 3324
1413 5465
1413 8057
1413 8317
1413 8341
1413 8943
1413 9513
1414 2711
1414 2776
1414 4325
1414 5158
1414 7089
1414 7949
1414 8448
1414 9867
1415 1483
1415 1723
1415 2170
1415 2747
1415 2800
1415 3771
1415 4159
1415 4828
1415 5201
1415 6419
1415 6862
1415 6988
1415 7397
1415 7683
1415 8147
1415 9411
1415 9553
1416 2678
1416 3165
1416 3422
1416 3530
1416 5520
1416 5541
1416 6643
1416 7598
1416 7610
1416 7731
1416 7925
1416 8598
1416 9164
1416 9178
1416 9371
1417 2223
1417 2418
1417 3237
1417 5918
1417 6624
1417 7405
1417 8434
1417 8798
1417 9485
1417 9621
1418 1612
1418 2680
1418 2739
1418 2888
1418 3725
1418 3748
1418 3808
1418 4022
1418 4108
1418 4470
1418 4822
1418 5278
1418 5372
1418 5496
1418 5571
1418 6132
1418 6344
1418 6440
1418 6872
1418 7153
1418 7246
1418 7371
1418 7413
1418 8070
1418 8158
1418 8202
1418 8362
1418 8665
1418 9169
1418 9181
1418 9444
1418 9710
1418 9973
1419 1736
1419 2256
1419 2635
1419 3632
1419 3974
1419 5088
1419 5501
1419 5675
1419 5881
1419 6026
1419 7208
1419 8909
1419 9440
1420 1871
1420 2138
1420 2569
1420 2772
1420 3383
1420 3522
1420 3720
1420 3872
1420 5013
1420 5358
1420 6055
1420 7142
1420 7705
1420 7799
1420 8839
1420 8972
1420 9593
1420 9724
1421 2743
1421 2848
1421 3020
1421 3169
1421 3565
1421 3748
1421 4192
1421 6403
1421 6617
1421 6627
1421 6995
1421 7338
1421 7506
1421 8124
1422 1469
1422 1975
1422 2423
1422 2599
1422 2682
1422 2789
1422 3202
1422 3439
1422 3530
1422 3751
1422 4042
1422 4130
1422 4176
1422 4264
1422 4883
1422 5039
1422 5050
1422 5513
1422 5767
1422 6650
1422 6683
1422 7144
1422 7214
1422 7344
1422 8017
1422 8168
1422 8368
1422 8548
1422 8868
1422 8895
1422 8905
1422 9109
1422 9121
1422 9295
1422 9472
1422 9908
1423 1795
1423 1908
1423 1965
1423 2241
1423 3672
1423 4309
1423 4562
1423 4642
1423 4964
1423 5500
1423 6595
1423 6673
1423 6726
1423 6829
1423 7082
1423 7281
1423 7406
1423 8081
1423 8199
1423 8310
1423 8697
1424 2378
1424 4797
1424 4847
1424 6825
1424 7037
1424 7463
1424 9520
1425 2039
1425 2290
1425 2840
1425 2965
1425 3291
1425 3729
1425 3829
1425 3928
1425 4397
1425 4753
1425 9258
1426 1551
1426 1647
1426 2142
1426 2429
1426 2514
1426 3742
1426 4902
1426 5405
1426 5743
1426 6063
1426 6615
1426 6880
1426 9320
1426 9450
1427 2414
1427 2440
1427 2627
1427 2680
1427 2811
1427 2864
1427 2994
1427 3118
1427 3524
1427 3797
1427 3865
1427 3972
1427 3997
1427 4392
1427 4580
1427 4756
1427 5095
1427 5568
1427 5795
1427 5917
1427 6219
1427 6268
1427 6486
1427 6502
1427 7522
1427 7752
1427 7779
1427 7833
1427 7945
1427 8183
1427 8235
1427 8597
1427 8728
1427 9113
1427 9251
1427 9644
1427 9908
1427 9966
1428 3182
1428 3982
1428 5988
1428 6476
1428 6797
1428 7924
1428 8529
1428 8961
1428 9435
1429 1461
1429 1468
1429 3206
1429 3828
1429 4405
1429 5019
1429 5696
1429 6001
1429 6828
1429 6949
1429 7544
1429 7602
1429 8093
1429 9351
1430 2146
1430 3434
1430 3742
1430 3813
1430 4074
1430 5232
1430 5399
1430 5686
1430 6441
1430 6744
1430 7166
1430 7458
1430 8352
1430 8467
1430 8775
1430 9138
1430 9602
1431 1657
1431 5078
1431 5242
1431 6578
1431 6762
1431 6871
1431 9067
1431 9070
1431 9194
1431 9259
1432 2496
1432 3228
1432 3702
1432 3848
1432 4082
1432 4162
1432 4478
1432 5113
1432 5167
1432 5317
1432 5445
1432 5470
1432 6209
1432 6404
1432 6802
1432 7887
1433 1600
1433 2267
1433 2512
1433 3091
1433 3188
1433 4030
1433 4429
1433 5137
1433 6394
1433 6481
1433 6670
1433 6953
1433 7538
1433 8278
1433 9257
1433 9397
1434 1717
1434 2809
1434 2902
1434 3425
1434 3471
1434 4150
1434 4187
1434 4231
1434 4393
1434 4737
1434 5630
1434 5834
1434 5951
1434 6198
1434 6273
1434 6352
1434 6578
1434 6815
1434 6946
1434 8660
1434 8838
1434 9127
1434 9249
1434 9274
1434 9421
1435 1921
1435 2584
1435 2973
1435 3237
1435 3658
1435 3891
1435 4138
1435 4369
1435 4526
1435 4581
1435 4647
1435 4779
1435 4812
1435 5105
1435 5337
1435 5956
1435 5968
1435 6867
1435 7934
1435 9284
1435 9954
1436 2213
1436 2948
1436 3128
1436 4442
1436 4590
1436 4764
1436 4795
1436 5063
1436 5239
1436 5895
1436 6225
1436 6756
1436 7202
1436 7285
1436 9528
1437 1729
1437 1840
1437 2886
1437 3127
1437 5615
1437 7283
1437 9995
1438 3418
1438 3689
1438 4118
1438 4806
1438 5322
1438 5344
1438 5452
1438 6010
1438 6888
1438 6931
1438 7467
1438 7840
1438 8632
1438 9160
1438 9309
1438 9519
1438 9847
1439 1480
1439 1798
1439 1824
1439 1939
1439 2018
1439 2648
1439 2848
1439 3718
1439 4019
1439 4128
1439 4169
1439 4377
1439 4405
1439 4480
1439 5110
1439 5584
1439 6022
1439 6690
1439 6814
1439 7155
1439 7355
1439 8055
1439 8472
1439 8484
1439 8933
1440 1767
1440 1963
1440 2872
1440 2918
1440 4848
1440 6518
1440 7303
1440 7975
1440 7977
1440 8908
1440 9540
1440 9605
1440 9621
1441 1940
1441 2301
1441 3933
1441 4017
1441 4774
1441 5138
1441 5908
1441 6146
1441 7180
1441 8132
1441 8664
1441 9013
1441 9346
1441 9701
1442 1474
1442 1622
1442 1957
1442 2947
1442 4283
1442 5280
1442 5309
1442 5538
1442 5907
1442 6079
1442 6423
1442 6619
1442 8327
1442 8700
1442 9173
1442 9880
1442 9899
1443 1733
1443 1742
1443 2051
1443 2472
1443 2656
1443 2912
1443 3007
1443 3850
1443 5572
1443 6506
1443 6903
1443 7410
1443 7636
1443 8330
1443 8695
1443 9147
1443 9329
1444 1505
1444 1928
1444 2197
1444 2353
1444 4113
1444 5012
1444 5098
1444 5594
1444 5745
1444 7585
1444 7639
1444 8252
1444 9474
1445 1550
1445 1876
1445 2101
1445 2913
1445 3174
1445 3239
1445 4146
1445 4407
1445 4618
1445 5047
1445 5061
1445 5388
1445 6033
1445 6386
1445 6820
1445 6902
1445 6984
1445 7324
1445 9211
1445 9682
1446 3349
1446 3976
1446 5356
1446 5658
1446 7308
1446 7312
1446 8648
1446 9768
1447 2244
1447 2969
1447 3744
1447 3907
1447 4364
1447 5310
1447 5543
1447 5578
1447 5737
1447 5861
1447 6100
1447 6827
1447 6964
1447 7095
1447 7179
1447 7180
1447 7193
1447 7822
1447 9118
1447 9534
1448 1762
1448 2194
1448 2389
1448 2702
1448 3497
1448 3638
1448 6437
1448 6611
1448 6760
1448 7467
1448 7716
1448 8298
1448 8897
1448 9253
1448 9325
1449 1454
1449 2275
1449 3131
1449 3610
1449 4156
1449 6171
1449 6930
1449 7114
1449 7384
1449 7757
1449 8089
1449 8366
1449 9774
1450 1870
1450 2319
1450 2709
1450 2859
1450 3144
1450 3292
1450 3633
1450 4689
1450 4998
1450 6771
1450 8370
1450 8926
1450 9946
1451 2021
1451 3073
1451 5394
1451 5549
1451 7883
1451 8879
1451 9419
1451 9708
1452 1456
1452 1946
1452 2039
1452 2512
1452 3095
1452 4248
1452 6359
1452 6817
1452 6942
1452 8531
1452 8874
1452 8996
1452 9009
1452 9434
1453 1935
1453 2159
1453 2238
1453 2285
1453 2781
1453 2782
1453 3065
1453 3253
1453 3509
1453 3656
1453 3847
1453 4047
1453 4223
1453 4424
1453 4483
1453 4565
1453 4690
1453 5282
1453 5381
1453 5805
1453 6038
1453 6432
1453 6938
1453 7799
1453 7938
1453 8007
1453 8020
1453 8138
1453 8459
1453 8509
1453 8745
1453 9492
1453 9822
1453 9833
1453 9931
1454 1536
1454 3497
1454 3610
1454 3719
1454 5546
1454 5875
1454 6373
1454 6547
1454 6928
1454 7114
1454 7765
1454 8031
1454 8089
1454 8262
1454 8366
1454 9173
1454 9984
1455 1943
1455 2187
1455 2232
1455 2998
1455 3450
1455 3468
1455 3770
1455 3876
1455 4202
1455 4362
1455 4447
1455 4604
1455 5039
1455 5356
1455 5449
1455 5592
1455 5831
1455 5858
1455 5996
1455 6282
1455 6441
1455 6499
1455 6721
1455 6874
1455 6978
1455 6986
1455 7112
1455 7148
1455 7676
1455 7809
1455 7975
1455 8705
1455 9046
1455 9345
1455 9371
1456 2124
1456 2668
1456 3009
1456 4773
1456 5761
1456 7232
1456 7276
1456 7744
1456 7752
1456 7961
1456 8009
1456 8057
1456 8208
1457 2243
1457 2933
1457 5066
1457 5829
1457 6225
1457 6888
1457 7592
1457 7942
1457 8220
1457 9509
1458 2274
1458 2653
1458 3240
1458 3557
1458 3840
1458 4636
1458 4811
1458 5151
1458 5275
1458 5706
1458 5725
1458 6647
1458 8013
1458 8184
1458 8229
1458 9551
1458 9574
1458 9585
1458 9947
1459 2461
1459 2583
1459 2780
1459 2816
1459 4866
1459 4867
1459 5516
1459 5537
1459 6505
1459 7182
1459 9120
1460 3868
1460 4164
1460 4470
1460 4993
1460 5604
1460 6761
1460 7431
1460 7460
1460 7718
1460 7948
1460 8755
1460 9595
1461 2537
1461 2795
1461 2797
1461 3085
1461 3209
1461 3354
1461 3828
1461 4133
1461 4675
1461 5326
1461 5417
1461 5549
1461 5784
1461 6828
1461 7544
1461 7969
1461 8093
1461 9187
1462 1602
1462 2228
1462 2332
1462 2658
1462 2747
1462 2953
1462 3077
1462 3430
1462 3677
1462 3755
1462 4180
1462 4416
1462 4629
1462 5092
1462 5361
1462 5378
1462 5570
1462 5580
1462 5632
1462 6520
1462 6554
1462 6732
1462 7445
1462 7625
1462 7745
1462 7952
1462 8142
1462 8463
1462 8480
1462 8701
1462 9246
1462 9591
1463 2062
1463 3022
1463 3647
1463 4954
1463 5011
1463 6600
1463 8422
1463 8834
1463 9189
1463 9424
1464 1600
1464 1767
1464 1935
1464 2848
1464 4374
1464 5402
1464 5425
1464 5618
1464 6041
1464 7562
1464 7882
1464 8167
1464 8304
1464 9093
1464 9354
1465 2353
1465 3022
1465 4533
1465 4640
1465 7638
1465 8382
1465 8661
1465 9496
1466 1962
1466 2309
1466 2749
1466 3354
1466 3632
1466 4035
1466 4320
1466 4446
1466 5139
1466 5482
1466 5709
1466 5810
1466 6470
1466 6527
1466 6687
1466 7125
1466 7277
1466 8172
1466 8384
1466 8621
1466 8647
1466 9715
1466 9821
1467 2044
1467 2888
1467 3094
1467 3274
1467 3418
1467 3543
1467 3586
1467 4719
1467 4995
1467 5008
1467 5050
1467 5110
1467 5642
1467 5730
1467 6006
1467 6273
1467 7259
1467 7669
1467 8326
1467 9893
1468 1946
1468 2007
1468 2324
1468 2488
1468 2596
1468 2963
1468 3137
1468 3266
1468 3508
1468 3649
1468 3940
1468 4520
1468 5675
1468 5691
1468 6813
1468 6881
1468 7049
1468 7726
1468 7960
1468 8169
1468 8614
1468 8859
1468 8902
1468 9073
1468 9088
1468 9442
1468 9517
1468 9920
1469 4326
1469 4793
1469 4927
1469 5319
1469 6216
1469 6338
1469 6846
1469 7506
1469 7508
1469 7607
1469 8656
1469 9338
1470 1736
1470 2119
1470 2220
1470 2351
1470 3093
1470 3152
1470 3351
1470 3369
1470 3375
1470 3854
1470 4091
1470 4116
1470 4268
1470 4777
1470 4850
1470 5106
1470 5165
1470 5169
1470 5516
1470 5721
1470 5989
1470 6092
1470 6174
1470 7139
1470 7617
1470 7722
1470 7818
1470 8082
1470 8266
1470 8530
1470 8814
1470 9179
1470 9417
1471 2273
1471 2620
1471 2841
1471 3212
1471 3709
1471 4243
1471 4417
1471 4801
1471 4889
1471 5076
1471 6909
1471 7086
1471 8852
1471 9791
1472 4864
1472 5258
1472 6320
1472 6990
1472 7213
1472 8897
1472 9896
1472 9976
1473 1570
1473 1835
1473 2499
1473 2540
1473 2590
1473 2641
1473 2755
1473 2773
1473 2947
1473 2968
1473 3386
1473 3608
1473 3757
1473 4103
1473 4340
1473 4427
1473 4722
1473 4782
1473 5369
1473 5659
1473 5927
1473 6140
1473 6707
1473 7447
1473 7580
1473 7841
1473 8320
1473 8705
1473 8808
1473 8958
1473 9174
1473 9296
1473 9882
1474 2550
1474 3450
1474 3863
1474 4103
1474 5280
1474 5309
1474 5477
1474 5939
1474 6619
1474 6821
1474 8188
1474 8327
1474 9551
1474 9577
1475 1561
1475 2371
1475 2562
1475 2786
1475 3539
1475 4228
1475 4970
1475 5195
1475 5227
1475 5493
1475 5505
1475 5905
1475 6076
1475 6163
1475 7159
1475 7289
1475 7591
1475 8127
1475 8541
1475 8632
1475 8829
1475 8983
1476 1560
1476 2955
1476 4130
1476 4772
1476 4993
1476 5580
1476 5682
1476 5796
1476 6115
1476 6202
1476 6275
1476 6637
1476 6959
1476 7705
1476 8002
1476 8232
1476 8598
1476 8675
1476 9082
1476 9376
1476 9642
1476 9825
1477 1636
1477 2595
1477 2610
1477 3891
1477 4009
1477 6131
1477 6164
1477 7404
1477 7820
1477 8170
1477 8250
1477 8666
1477 9071
1478 2105
1478 2352
1478 4680
1478 5015
1478 5637
1478 5778
1478 6265
1478 7890
1478 9058
1479 1606
1479 1739
1479 2934
1479 3158
1479 3635
1479 3943
1479 3959
1479 4072
1479 4095
1479 4427
1479 5043
1479 5311
1479 5790
1479 6030
1479 6035
1479 6786
1479 6946
1479 7761
1479 8125
1479 8307
1479 9017
1479 9501
1479 9817
1480 2394
1480 4399
1480 5042
1480 5165
1480 5255
1480 5741
1480 5972
1480 6320
1480 6569
1480 7054
1480 8458
1480 8460
1480 9449
1480 9681
1481 2708
1481 2912
1481 3441
1481 3500
1481 5067
1481 5476
1481 5670
1481 5947
1481 7515
1481 7546
1481 7724
1481 8002
1481 9019
1482 1483
1482 1690
1482 2937
1482 3320
1482 3750
1482 4092
1482 6113
1482 7166
1482 7743
1482 8245
1482 8264
1482 8441
1482 8606
1482 8936
1482 9170
1482 9628
1483 1492
1483 1501
1483 1547
1483 1767
1483 1904
1483 5554
1483 6916
1483 8035
1483 8163
1483 8235
1483 8907
1483 9553
1483 9997
1484 1660
1484 2191
1484 3987
1484 4277
1484 5095
1484 5319
1484 6089
1484 6216
1484 6338
1484 6417
1484 6846
1484 6936
1484 7508
1484 7801
1484 8024
1484 9256
1484 9338
1485 1589
1485 1753
1485 1802
1485 1851
1485 4454
1485 4765
1485 5195
1485 5282
1485 5330
1485 5878
1485 5907
1485 6352
1485 6588
1485 6847
1485 7528
1485 7676
1485 7681
1485 8695
1485 9037
1485 9899
1486 3398
1486 3452
1486 5606
1486 5922
1486 6192
1486 6830
1486 8253
1486 8409
1487 1547
1487 1688
1487 3923
1487 4118
1487 5605
1487 6366
1487 6682
1487 6899
1487 9581
1488 1767
1488 1957
1488 2706
1488 4323
1488 4712
1488 5307
1488 6398
1488 6779
1488 9267
1488 9910
1489 3396
1489 3593
1489 4081
1489 4479
1489 4912
1489 6443
1489 6922
1490 2383
1490 2727
1490 4987
1490 5114
1490 5325
1490 6066
1490 6360
1490 6368
1490 6378
1490 6697
1490 7047
1490 7397
1490 7731
1490 7789
1490 7901
1490 7917
1490 7973
1490 8323
1490 8381
1490 8532
1490 8620
1490 9076
1490 9151
1490 9281
1490 9308
1490 9366
1490 9508
1491 1615
1491 2205
1491 2275
1491 2383
1491 3594
1491 5436
1491 5743
1491 6346
1491 9259
1491 9375
1492 1621
1492 1771
1492 1815
1492 2459
1492 2850
1492 3154
1492 3160
1492 3343
1492 3710
1492 3997
1492 5176
1492 5672
1492 5949
1492 6127
1492 6368
1492 6403
1492 6506
1492 6777
1492 6889
1492 6974
1492 7422
1492 7654
1492 8002
1492 8038
1492 8241
1492 8597
1492 9017
1492 9359
1492 9575
1492 9937
1493 2949
1493 5102
1493 5252
1493 6142
1493 6758
1493 6844
1493 7327
1493 7717
1493 7817
1493 8172
1494 1901
1494 1916
1494 1929
1494 2090
1494 2277
1494 2482
1494 3395
1494 3528
1494 3761
1494 3983
1494 4333
1494 4837
1494 4996
1494 5109
1494 5328
1494 5404
1494 5601
1494 5652
1494 6247
1494 6773
1494 6775
1494 7039
1494 7288
1494 8257
1494 8290
1494 8442
1494 8744
1494 8856
1494 8916
1494 9131
1494 9462
1494 9556
1494 9669
1494 9697
1495 1765
1495 2546
1495 2596
1495 2836
1495 3155
1495 3244
1495 3256
1495 3294
1495 3297
1495 3476
1495 3543
1495 3586
1495 3688
1495 4185
1495 4560
1495 4589
1495 5351
1495 5513
1495 5530
1495 5657
1495 5922
1495 6717
1495 6790
1495 7102
1495 7178
1495 7255
1495 7696
1495 7710
1495 8046
1495 8059
1495 8453
1495 8541
1495 8750
1495 8754
1495 9537
1495 9860
1496 2068
1496 2400
1496 2754
1496 3269
1496 3429
1496 3798
1496 4542
1496 7009
1496 7351
1496 7950
1496 8270
1496 8406
1496 8419
1496 8535
1496 8718
1496 9162
1496 9697
1497 1543
1497 3202
1497 3579
1497 3694
1497 4095
1497 4125
1497 4424
1497 5615
1497 5703
1497 5732
1497 5815
1497 5955
1497 6957
1497 8276
1497 9397
1497 9546
1498 2001
1498 2316
1498 2887
1498 4719
1498 6339
1498 6606
1498 6913
1498 7297
1498 7545
1498 8222
1498 8406
1498 9279
1499 2624
1499 2812
1499 3123
1499 3338
1499 3886
1499 3905
1499 4551
1499 5705
1499 5833
1499 6223
1499 6593
1499 6940
1499 7191
1499 7331
1499 8210
1499 8247
1499 8289
1499 8327
1499 8887
1499 9830
1499 9899
1500 2006
1500 2449
1500 4003
1500 4134
1500 4400
1500 4734
1500 5302
1500 5370
1500 6785
1500 7245
1500 7533
1500 7656
1500 7913
1500 8145
1500 8475
1500 8991
1500 9098
1500 9420
1500 9629
1500 9820
1501 1834
1501 2142
1501 2323
1501 2804
1501 2847
1501 2965
1501 2972
1501 3077
1501 3098
1501 3418
1501 3605
1501 3736
1501 3902
1501 4211
1501 4358
1501 5061
1501 5248
1501 5577
1501 5631
1501 5687
1501 6029
1501 6445
1501 6481
1501 6566
1501 6713
1501 7166
1501 7275
1501 7512
1501 7876
1501 8026
1501 8388
1501 8456
1501 8791
1501 8894
1501 9207
1501 9485
1501 9554
1501 9691
1501 9747
1502 3648
1502 5223
1502 6290
1502 6481
1502 6857
1502 7208
1502 8073
1502 8414
1502 9073
1503 1689
1503 3504
1503 4783
1503 5629
1503 5903
1503 6280
1503 6808
1503 7462
1503 7540
1503 8127
1503 9389
1504 1624
1504 2231
1504 2297
1504 3525
1504 3669
1504 4169
1504 4781
1504 5809
1504 7196
1504 7590
1504 7895
1504 8075
1504 8271
1504 8783
1504 9270
1504 9448
1504 9465
1505 1647
1505 3692
1505 4235
1505 4799
1505 7327
1505 9138
1506 1865
1506 3718
1506 4857
1506 4867
1506 6999
1506 7168
1506 7385
1506 8194
1506 8553
1506 9330
1506 9385
1506 9477
1507 1782
1507 2313
1507 3172
1507 3666
1507 3670
1507 3721
1507 3801
1507 3902
1507 4106
1507 4844
1507 5122
1507 5621
1507 5932
1507 6157
1507 6430
1507 6897
1507 7102
1507 7152
1507 7280
1507 8073
1507 8254
1507 8956
1507 9466
1507 9643
1508 1598
1508 1652
1508 3187
1508 4296
1508 4951
1508 5567
1508 6001
1508 7317
1508 7507
1508 7555
1508 7709
1508 9302
1509 2592
1509 5348
1509 5487
1509 6653
1509 7060
1509 9804
1510 2315
1510 2554
1510 2677
1510 2897
1510 3235
1510 5179
1510 5210
1510 5399
1510 6152
1510 6771
1510 7100
1510 7490
1510 7843
1510 8021
1510 9007
1510 9098
1511 1834
1511 2909
1511 4000
1511 4356
1511 6083
1511 6433
1511 6689
1511 7650
1511 8239
1511 8692
1511 9477
1511 9857
1512 1853
1512 2053
1512 2466
1512 3956
1512 4380
1512 4736
1512 5803
1512 5820
1512 5980
1512 6228
1512 6507
1512 7211
1512 7410
1512 8121
1512 8243
1512 8487
1512 8736
1513 2005
1513 2335
1513 2526
1513 2677
1513 2684
1513 3333
1513 3437
1513 3442
1513 3652
1513 3805
1513 4229
1513 4645
1513 4822
1513 4977
1513 5071
1513 5176
1513 5254
1513 6333
1513 6438
1513 6627
1513 7234
1513 7394
1513 7657
1513 8121
1513 8138
1513 8307
1513 8514
1513 8695
1513 9511
1513 9782
1513 9977
1514 1818
1514 2843
1514 3722
1514 3802
1514 4249
1514 5715
1514 5818
1514 5957
1514 7202
1514 8026
1514 8355
1514 9388
1515 1602
1515 1792
1515 2066
1515 2169
1515 2355
1515 2490
1515 3301
1515 3594
1515 4479
1515 4851
1515 6200
1515 6609
1515 6727
1515 7846
1515 8165
1515 8588
1515 9009
1515 9434
1516 2872
1516 3222
1516 4150
1516 5052
1516 5082
1516 5310
1516 5597
1516 5879
1516 6149
1516 7344
1516 8071
1516 8879
1516 9728
1516 9747
1516 9840
1517 2611
1517 2830
1517 3222
1517 3634
1517 4926
1517 5574
1517 5799
1517 6309
1517 6864
1517 7683
1517 8419
1517 9859
1518 2722
1518 2881
1518 5008
1518 5889
1518 6228
1518 6635
1518 6995
1518 7015
1518 9470
1519 2154
1519 2732
1519 2889
1519 3385
1519 3899
1519 4584
1519 4768
1519 5376
1519 7354
1519 7645
1519 7874
1519 7999
1519 8516
1519 8648
1519 9261
1519 9669
1519 9950
1520 1634
1520 3464
1520 4051
1520 4801
1520 5883
1520 6465
1520 6517
1520 6545
1520 6790
1520 7820
1520 8592
1520 9148
1520 9940
1521 3079
1521 3651
1521 3769
1521 4762
1521 4946
1521 6167
1521 6868
1521 7661
1521 7679
1521 8191
1521 9973
1522 1709
1522 2004
1522 2024
1522 3314
1522 3485
1522 5080
1522 5251
1522 5609
1522 5780
1522 6076
1522 7118
1522 7164
1522 9058
1522 9467
1522 9886
1522 9995
1523 1743
1523 3354
1523 3570
1523 3574
1523 5230
1523 5687
1523 5958
1523 6771
1523 6957
1523 8595
1523 8606
1523 8755
1523 8959
1523 9037
1524 1633
1524 2972
1524 3014
1524 3187
1524 3641
1524 4329
1524 4758
1524 4771
1524 7037
1524 7723
1524 9191
1525 2640
1525 2760
1525 2872
1525 3224
1525 3537
1525 3916
1525 5841
1525 6197
1525 6682
1525 6793
1525 7092
1525 7494
1526 1759
1526 3364
1526 3494
1526 4181
1526 5433
1526 5468
1526 7026
1526 7075
1526 8108
1526 9359
1526 9649
1527 2296
1527 2364
1527 2642
1527 2957
1527 3718
1527 4113
1527 5524
1527 6122
1527 6309
1527 6781
1527 6984
1527 7275
1527 7870
1527 7892
1527 9175
1528 1633
1528 1922
1528 2650
1528 2735
1528 5499
1528 5700
1528 6036
1528 6122
1528 6495
1528 6899
1528 7197
1528 7367
1528 8362
1529 1835
1529 2025
1529 2212
1529 2241
1529 2561
1529 2902
1529 2938
1529 3046
1529 3431
1529 3525
1529 3734
1529 3852
1529 3907
1529 4078
1529 4114
1529 4425
1529 5241
1529 5862
1529 6199
1529 6847
1529 6857
1529 7179
1529 7279
1529 7807
1529 8056
1529 8257
1529 8608
1529 8703
1529 9063
1529 9162
1529 9631
1529 9724
1529 9951
1530 1609
1530 1882
1530 3795
1530 6559
1530 6847
1530 7515
1530 7908
1530 8690
1530 8818
1530 8942
1530 9414
1530 9663
1531 1688
1531 1708
1531 1839
1531 1844
1531 1943
1531 2287
1531 2397
1531 2432
1531 2882
1531 3347
1531 3775
1531 3811
1531 3819
1531 4098
1531 4458
1531 4582
1531 4877
1531 4931
1531 5164
1531 5303
1531 5672
1531 5832
1531 5994
1531 6393
1531 6404
1531 6879
1531 7100
1531 7274
1531 7814
1531 8500
1531 8539
1531 8723
1531 8897
1531 9405
1531 9837
1531 9898
1532 2441
1532 2555
1532 2570
1532 5244
1532 5706
1532 6195
1532 6651
1532 9289
1532 9455
1532 9999
1533 2517
1533 2964
1533 3239
1533 3349
1533 3634
1533 4024
1533 4707
1533 5312
1533 5574
1533 6898
1533 7576
1534 2048
1534 2795
1534 2909
1534 3438
1534 3516
1534 3940
1534 4026
1534 4077
1534 4250
1534 4907
1534 5235
1534 5249
1534 5308
1534 5643
1534 5772
1534 6048
1534 6265
1534 6418
1534 6785
1534 7026
1534 7118
1534 7121
1534 7953
1534 8350
1534 9200
1534 9997
1535 2210
1535 2271
1535 2934
1535 3080
1535 3389
1535 3562
1535 3913
1535 3954
1535 4127
1535 5058
1535 5819
1535 6121
1535 7980
1535 9526
1536 1658
1536 1806
1536 2238
1536 2385
1536 2636
1536 2726
1536 3322
1536 3341
1536 3928
1536 4116
1536 4175
1536 4418
1536 4669
1536 6181
1536 6192
1536 6197
1536 6391
1536 7587
1536 7608
1536 7804
1536 7895
1536 8181
1536 8369
1536 8385
1536 8398
1536 8616
1536 8781
1536 8920
1536 9149
1536 9512
1537 1551
1537 3074
1537 3537
1537 4643
1537 4932
1537 5109
1537 5423
1537 6937
1537 7698
1537 9426
1538 3077
1538 3603
1538 3938
1538 4471
1538 4496
1538 4795
1538 5671
1538 7833
1538 8408
1538 8544
1538 9160
1538 9779
1539 1573
1539 2013
1539 2345
1539 2541
1539 2932
1539 3102
1539 3110
1539 3327
1539 4024
1539 5088
1539 5098
1539 5434
1539 5788
1539 7217
1539 7327
1539 8126
1539 8268
1539 8541
1539 8636
1539 9074
1539 9203
1539 9361
1540 2694
1540 3020
1540 3814
1540 3920
1540 4321
1540 4503
1540 4563
1540 4825
1540 5219
1540 5603
1540 5604
1540 5725
1540 5913
1540 6037
1540 6809
1540 7406
1540 7694
1540 8230
1540 8417
1540 8529
1540 8690
1540 8837
1540 8843
1540 9839
1541 4157
1541 4664
1541 5076
1541 5296
1541 6043
1541 8618
1541 8799
1541 9193
1542 2019
1542 3496
1542 3685
1542 3834
1542 3935
1542 5491
1542 5796
1542 6504
1542 6598
1542 7383
1542 7767
1542 8134
1542 8138
1543 1719
1543 2518
1543 2602
1543 7029
1543 8285
1544 4962
1544 5054
1544 5086
1544 5351
1544 5502
1544 7772
1544 7963
1544 8410
1544 8762
1545 1555
1545 1754
1545 2788
1545 2867
1545 3448
1545 3458
1545 3711
1545 3889
1545 4162
1545 4791
1545 4888
1545 5145
1545 5414
1545 5880
1545 5928
1545 6329
1545 6340
1545 6577
1545 6688
1545 6878
1545 7054
1545 7188
1545 7206
1545 7279
1545 7341
1545 7679
1545 7887
1545 8592
1545 8795
1545 8828
1545 8929
1545 9061
1545 9457
1546 1628
1546 1692
1546 2417
1546 2498
1546 2587
1546 2842
1546 3403
1546 3500
1546 3865
1546 4135
1546 4813
1546 5760
1546 6079
1546 6273
1546 6275
1546 6355
1546 6372
1546 6465
1546 6545
1546 6560
1546 7372
1546 7694
1546 8241
1546 8433
1546 8604
1546 9088
1547 1688
1547 1829
1547 2325
1547 3932
1547 4171
1547 4616
1547 5423
1547 6332
1547 7105
1547 8288
1547 9363
1547 9581
1548 1704
1548 1707
1548 2496
1548 2604
1548 2670
1548 2995
1548 4125
1548 4787
1548 4856
1548 5119
1548 5771
1548 5938
1548 6274
1548 6281
1548 6300
1548 6369
1548 6388
1548 6799
1548 6812
1548 6870
1548 7003
1548 7777
1548 8388
1548 8624
1548 8645
1548 9429
1548 9695
1549 1737
1549 2200
1549 2369
1549 2871
1549 5319
1549 5658
1549 6228
1549 7063
1549 7139
1549 7895
1549 8383
1549 9273
1549 9656
1550 2197
1550 2422
1550 3624
1550 4404
1550 4722
1550 5047
1550 5061
1550 5241
1550 5388
1550 5729
1550 7063
1550 7324
1550 7720
1550 8928
1550 9622
1551 1936
1551 2176
1551 2816
1551 3199
1551 3264
1551 3469
1551 5109
1551 7513
1551 8320
1551 8606
1551 9384
1551 9703
1552 1942
1552 4070
1552 4169
1552 4418
1552 4786
1552 5106
1552 6079
1552 6188
1552 6383
1552 6690
1552 8723
1552 8789
1552 9522
1552 9545
1553 3355
1553 3852
1553 4207
1553 4692
1553 5396
1553 7682
1553 7957
1553 8078
1553 8791
1553 8848
1554 2133
1554 2426
1554 2543
1554 2953
1554 4146
1554 4586
1554 5782
1554 6148
1554 7750
1554 8103
1554 8413
1554 8460
1554 9426
1555 2001
1555 2102
1555 3266
1555 3646
1555 3836
1555 4141
1555 4573
1555 5175
1555 5542
1555 5572
1555 5945
1555 6373
1555 7151
1555 7289
1555 8819
1555 8870
1555 9087
1555 9274
1555 9648
1556 2274
1556 2655
1556 3545
1556 4088
1556 4178
1556 5501
1556 5928
1556 6255
1556 7328
1556 7463
1556 8244
1556 8726
1556 8760
1556 9502
1556 9978
1557 1739
1557 2125
1557 2719
1557 2798
1557 3296
1557 3548
1557 5590
1557 6137
1557 8256
1557 8263
1557 8472
1557 9058
1557 9230
1557 9599
1558 2569
1558 2890
1558 3271
1558 3574
1558 3849
1558 7780
1558 8036
1559 1975
1559 2593
1559 2729
1559 3211
1559 5482
1559 6159
1559 6439
1559 6842
1559 7055
1559 7219
1559 7226
1559 7483
1559 7800
1559 7880
1559 8016
1559 8243
1559 8980
1559 9959
1560 2228
1560 2369
1560 2841
1560 2862
1560 3503
1560 3737
1560 4565
1560 4772
1560 6115
1560 6637
1560 7176
1560 8598
1560 8675
1560 8819
1560 9082
1560 9162
1560 9842
1560 9985
1561 2197
1561 2768
1561 3172
1561 3539
1561 4051
1561 5493
1561 5905
1561 5994
1561 7591
1562 1785
1562 2355
1562 2773
1562 4110
1562 5446
1562 6514
1562 7976
1562 9189
1562 9547
1563 2392
1563 3252
1563 3930
1563 5189
1563 5769
1563 6569
1563 6639
1563 8232
1563 8715
1563 8727
1563 9201
1563 9319
1563 9670
1563 9767
1563 9879
1564 1735
1564 1933
1564 2054
1564 2099
1564 2595
1564 2935
1564 3467
1564 4006
1564 4032
1564 4467
1564 4902
1564 4954
1564 5166
1564 5237
1564 5456
1564 5487
1564 6067
1564 6080
1564 6141
1564 6323
1564 6749
1564 7653
1564 7706
1564 7817
1564 8008
1564 8128
1564 8218
1564 8383
1564 8452
1564 8639
1564 9129
1564 9137
1564 9587
1564 9689
1565 1627
1565 1761
1565 2487
1565 3798
1565 4219
1565 4239
1565 4739
1565 6408
1565 6619
1565 7245
1565 7513
1565 7717
1565 7724
1565 8265
1565 8446
1565 8875
1565 8941
1565 9316
1565 9388
1566 1571
1566 1989
1566 3286
1566 4123
1566 4240
1566 4636
1566 5980
1566 6580
1566 8155
1566 8865
1566 9061
1566 9577
1567 1828
1567 2799
1567 3192
1567 3414
1567 4541
1567 4562
1567 4791
1567 4819
1567 5163
1567 5254
1567 5406
1567 6206
1567 6327
1567 6640
1567 7196
1567 7794
1567 7854
1567 7984
1567 8318
1567 8878
1567 9821
1567 9861
1568 1699
1568 1733
1568 2427
1568 2752
1568 2826
1568 2983
1568 3167
1568 3336
1568 4645
1568 4698
1568 4763
1568 5845
1568 6696
1568 7158
1568 7938
1568 7974
1568 8476
1568 8910
1568 9157
1568 9745
1569 2049
1569 2105
1569 2522
1569 2998
1569 3864
1569 3977
1569 5215
1569 5354
1569 5830
1569 6350
1569 6429
1569 6456
1569 6622
1569 6635
1569 8108
1569 8844
1569 9694
1570 1622
1570 1734
1570 2454
1570 2540
1570 2574
1570 2584
1570 3223
1570 3434
1570 3614
1570 3775
1570 4006
1570 4078
1570 4293
1570 4391
1570 4427
1570 4722
1570 5038
1570 5171
1570 5551
1570 6324
1570 6414
1570 6568
1570 6707
1570 7011
1570 7545
1570 7708
1570 7738
1570 7996
1570 8406
1570 8450
1570 8582
1570 8926
1570 9078
1571 1829
1571 2744
1571 3998
1571 4240
1571 5936
1571 6512
1571 8496
1571 8558
1571 8810
1571 9061
1571 9577
1571 9582
1572 1738
1572 2310
1572 2315
1572 2966
1572 3388
1572 3795
1572 4326
1572 4565
1572 5215
1572 5553
1572 8386
1572 8406
1572 9236
1572 9841
1573 1716
1573 2714
1573 2991
1573 3389
1573 4162
1573 4205
1573 4993
1573 5394
1573 6397
1573 7352
1573 7464
1573 7531
1573 7558
1573 7936
1573 8016
1573 9632
1573 9871
1573 9879
1574 1971
1574 2496
1574 3305
1574 4653
1574 6946
1574 7372
1574 9555
1575 1585
1575 1797
1575 2135
1575 2362
1575 2997
1575 3291
1575 3315
1575 3373
1575 3381
1575 3414
1575 3433
1575 4116
1575 4596
1575 4814
1575 5148
1575 5629
1575 6585
1575 6587
1575 6849
1575 7711
1575 8003
1575 8151
1575 8238
1575 8511
1575 8539
1575 8880
1575 9241
1575 9521
1575 9574
1575 9932
1576 1707
1576 1728
1576 2147
1576 2206
1576 2255
1576 2397
1576 5231
1576 5310
1576 5323
1576 6961
1576 7446
1576 7485
1576 7660
1576 8248
1576 8286
1576 8305
1576 8581
1576 9169
1576 9452
1576 9648
1576 9969
1577 2025
1577 2500
1577 2967
1577 3061
1577 3684
1577 3797
1577 3926
1577 5037
1577 6373
1577 6727
1577 7587
1577 8114
1577 8698
1577 9450
1578 1947
1578 2872
1578 3747
1578 4635
1578 5409
1578 5785
1578 5801
1578 6821
1578 6877
1578 6902
1578 7661
1578 7694
1578 9911
1579 1639
1579 2033
1579 2080
1579 2585
1579 2700
1579 3171
1579 3297
1579 3334
1579 3366
1579 3520
1579 3723
1579 4237
1579 4562
1579 4793
1579 5490
1579 5702
1579 5949
1579 5951
1579 6035
1579 6632
1579 6829
1579 7474
1579 7629
1579 7783
1579 8687
1579 8690
1579 9189
1579 9470
1579 9553
1580 2307
1580 2752
1580 2897
1580 4525
1580 5443
1580 5891
1580 6433
1580 6620
1580 6786
1580 7082
1580 9274
1581 1841
1581 2436
1581 2522
1581 2605
1581 2645
1581 2769
1581 2893
1581 3168
1581 3379
1581 3586
1581 3597
1581 4240
1581 4383
1581 4385
1581 4706
1581 4840
1581 5010
1581 5122
1581 5414
1581 5851
1581 6425
1581 6742
1581 6874
1581 6935
1581 7291
1581 7437
1581 7880
1581 7882
1581 7962
1581 7976
1581 8255
1581 8595
1581 8903
1581 9017
1581 9214
1581 9442
1581 9583
1581 9655
1581 9756
1581 9959
1582 1884
1582 3687
1582 4775
1582 5311
1582 5394
1582 5937
1582 5995
1582 6813
1582 7299
1582 7714
1582 7774
1582 8385
1582 9784
1583 2206
1583 3874
1583 5222
1583 5469
1583 6689
1583 6741
1583 7839
1583 8928
1583 9538
1583 9650
1584 3203
1584 3432
1584 4844
1584 5795
1584 6006
1584 7302
1584 7448
1584 7683
1584 9156
1584 9808
1585 2737
1585 3992
1585 4077
1585 5058
1585 5188
1585 5932
1585 6679
1585 7250
1585 7562
1585 9188
1585 9828
1586 1725
1586 2677
1586 2741
1586 2958
1586 3581
1586 3649
1586 5291
1586 5735
1586 5856
1586 6515
1586 7228
1586 7808
1586 8167
1586 8763
1586 9316
1587 1973
1587 2274
1587 2832
1587 2895
1587 2930
1587 3197
1587 3788
1587 3790
1587 3805
1587 4871
1587 5311
1587 5421
1587 5588
1587 6581
1587 7486
1587 7536
1587 8082
1587 8334
1587 8885
1587 9155
1587 9185
1587 9933
1588 2023
1588 3220
1588 3462
1588 3576
1588 3682
1588 4748
1588 6148
1588 6228
1588 6772
1588 9463
1589 1651
1589 1682
1589 1790
1589 2164
1589 2222
1589 2579
1589 2754
1589 2926
1589 3454
1589 3492
1589 3560
1589 4055
1589 4821
1589 4846
1589 5106
1589 5341
1589 6352
1589 6519
1589 6677
1589 6730
1589 6847
1589 7051
1589 7200
1589 7519
1589 7574
1589 7681
1589 7858
1589 7914
1589 7987
1589 7988
1589 8392
1589 8810
1589 8982
1589 9037
1589 9339
1589 9800
1589 9899
1589 9963
1590 1762
1590 2007
1590 2582
1590 2878
1590 3029
1590 3188
1590 3348
1590 3612
1590 3895
1590 4219
1590 4381
1590 4636
1590 5200
1590 5251
1590 5344
1590 5697
1590 5755
1590 6296
1590 6361
1590 6409
1590 6436
1590 6444
1590 7037
1590 7148
1590 7322
1590 7369
1590 7666
1590 8403
1590 8967
1591 1868
1591 2266
1591 2570
1591 2930
1591 3515
1591 3621
1591 3626
1591 3629
1591 3683
1591 3843
1591 4552
1591 4555
1591 4698
1591 4715
1591 5212
1591 5320
1591 5494
1591 6755
1591 7576
1591 8742
1591 9269
1591 9969
1592 2542
1592 2628
1592 3349
1592 3608
1592 5907
1592 6007
1592 6804
1592 7055
1592 7124
1592 7273
1592 7969
1592 8210
1592 8337
1593 1804
1593 2338
1593 3230
1593 3931
1593 4323
1593 4828
1593 5360
1593 5522
1593 5998
1593 6291
1593 7318
1593 7527
1593 8551
1593 9086
1593 9261
1594 1899
1594 3063
1594 3667
1594 3679
1594 4092
1594 5983
1594 6001
1594 6345
1594 9807
1595 1608
1595 2946
1595 3619
1595 3630
1595 3638
1595 5826
1595 6953
1595 7895
1595 9150
1595 9186
1596 1840
1596 2726
1596 3191
1596 4329
1596 5447
1596 5575
1596 5852
1596 6356
1596 8834
1596 8943
1596 9307
1596 9499
1597 1955
1597 2772
1597 4252
1597 4546
1597 5148
1597 5172
1597 5185
1597 5450
1597 5652
1597 6228
1597 7225
1597 8032
1597 8653
1597 8778
1597 8914
1598 1719
1598 2170
1598 2497
1598 3658
1598 4951
1598 5155
1598 5984
1598 6004
1598 6061
1598 6771
1598 7346
1598 8175
1598 8252
1598 8311
1598 8885
1598 9197
1599 2516
1599 3943
1599 5004
1599 5311
1599 6035
1599 6129
1599 8760
1600 1935
1600 2833
1600 2915
1600 3247
1600 3294
1600 3308
1600 3574
1600 3749
1600 4054
1600 4108
1600 4120
1600 4374
1600 4382
1600 4795
1600 5425
1600 5483
1600 5488
1600 5491
1600 5569
1600 5673
1600 5958
1600 6006
1600 6041
1600 6988
1600 7327
1600 7451
1600 7784
1600 7914
1600 8304
1600 8324
1600 8453
1600 8544
1600 9093
1600 9421
1600 9595
1600 9633
1600 9643
1601 1949
1601 2014
1601 2043
1601 2985
1601 3100
1601 3924
1601 5091
1601 6998
1601 8078
1601 8729
1601 9594
1602 2066
1602 2169
1602 2490
1602 3490
1602 3806
1602 4411
1602 4851
1602 6507
1602 6838
1602 7894
1602 9296
1603 2091
1603 2099
1603 2315
1603 2479
1603 3588
1603 4072
1603 4292
1603 4556
1603 4977
1603 5468
1603 5501
1603 5577
1603 5606
1603 6051
1603 6129
1603 7376
1603 8472
1603 8660
1603 8844
1604 1759
1604 1774
1604 3284
1604 3788
1604 4425
1604 5553
1604 8659
1604 9115
1604 9483
1605 1804
1605 1959
1605 2227
1605 3729
1605 3793
1605 4089
1605 4095
1605 5137
1605 5307
1605 5736
1605 6585
1605 6588
1605 7098
1605 7993
1605 8058
1605 8450
1605 8484
1605 8547
1605 8623
1605 9163
1605 9282
1605 9864
1606 1980
1606 2536
1606 3916
1606 4993
1606 5996
1606 6687
1606 7981
1606 8328
1606 8962
1606 9727
1606 9978
1607 1735
1607 1796
1607 2951
1607 3025
1607 3631
1607 4216
1607 5562
1607 5598
1607 5772
1607 6178
1607 6979
1607 7088
1607 7719
1607 7889
1607 8323
1607 8500
1607 9681
1607 9698
1608 3095
1608 5578
1608 6739
1608 8802
1609 2514
1609 3654
1609 6559
1609 6836
1609 6856
1609 7444
1609 9946
1610 1647
1610 2910
1610 3279
1610 4074
1610 4235
1610 4725
1610 5473
1610 6554
1610 6921
1610 7054
1610 7347
1610 7602
1611 2260
1611 3120
1611 3336
1611 3887
1611 5689
1611 6068
1611 6228
1611 7965
1611 8361
1611 8594
1611 9288
1611 9801
1612 4320
1612 4386
1612 5202
1612 5496
1612 6344
1612 6872
1612 8202
1612 8351
1612 8665
1612 9184
1612 9710
1613 1898
1613 1969
1613 2186
1613 2545
1613 3478
1613 3678
1613 4177
1613 4262
1613 5739
1613 5806
1613 6059
1613 6164
1613 6826
1613 6842
1613 6844
1613 7088
1613 7097
1613 8125
1613 8819
1613 8868
1613 9266
1614 2469
1614 2627
1614 2921
1614 4593
1614 4871
1614 5195
1614 5479
1614 5812
1614 5827
1614 7633
1614 8053
1614 9396
1615 1774
1615 2383
1615 2838
1615 3539
1615 3594
1615 3742
1615 3933
1615 4524
1615 4682
1615 5082
1615 5416
1615 5664
1615 5743
1615 5987
1615 7123
1615 9252
1615 9425
1615 9543
1616 2492
1616 2993
1616 3899
1616 4461
1616 5042
1616 5322
1616 5785
1616 5801
1616 6877
1616 7696
1616 8178
1616 8221
1616 9343
1616 9911
1617 2770
1617 4084
1617 4436
1617 4629
1617 5154
1617 5767
1617 6018
1617 6393
1617 6485
1617 7907
1617 8664
1617 9586
1617 9804
1617 9919
1617 9957
1618 2550
1618 3142
1618 4462
1618 5296
1618 5345
1618 5622
1618 5975
1618 6240
1618 6373
1618 6693
1618 6725
1618 8093
1618 8388
1618 8430
1618 8486
1618 9083
1618 9242
1618 9684
1619 2051
1619 2159
1619 2310
1619 2544
1619 2821
1619 3282
1619 3318
1619 3597
1619 4025
1619 4447
1619 4450
1619 4581
1619 4737
1619 4768
1619 5122
1619 5296
1619 5398
1619 5788
1619 5956
1619 6053
1619 6528
1619 7383
1619 7772
1619 8266
1619 8313
1619 8364
1619 8447
1619 8498
1619 8700
1619 8951
1619 9260
1619 9457
1619 9668
1620 2012
1620 2449
1620 4710
1620 5253
1620 6115
1620 6282
1620 6404
1620 8551
1620 8910
1621 2014
1621 2854
1621 3783
1621 3869
1621 4170
1621 5176
1621 5436
1621 5583
1621 6126
1621 6127
1621 6621
1621 6726
1621 6795
1621 7422
1621 7708
1621 7752
1621 7927
1621 8038
1621 8733
1621 8838
1621 9670
1622 2161
1622 2201
1622 2399
1622 2641
1622 5130
1622 6985
1622 7452
1622 8153
1622 8190
1622 8238
1622 8429
1622 9312
1622 9538
1623 2131
1623 2823
1623 4911
1623 5350
1623 6481
1623 6895
1623 7365
1623 7552
1623 7904
1623 9052
1624 1903
1624 1941
1624 2072
1624 2260
1624 2522
1624 3162
1624 3290
1624 4503
1624 5003
1624 5939
1624 5956
1624 8075
1624 8094
1624 9448
1624 9465
1625 1828
1625 3102
1625 3468
1625 3876
1625 4001
1625 4223
1625 4624
1625 4693
1625 7021
1625 8073
1625 8259
1625 8443
1625 8856
1625 9355
1625 9369
1625 9593
1625 9819
1626 2170
1626 3663
1626 4280
1626 5983
1626 6083
1626 6085
1626 6673
1626 7696
1626 8034
1626 8051
1626 8236
1626 8944
1627 1684
1627 1738
1627 1882
1627 2872
1627 3117
1627 3140
1627 4577
1627 4623
1627 4835
1627 5065
1627 6315
1627 6397
1627 6672
1627 7027
1627 8075
1627 8191
1628 2417
1628 2627
1628 3251
1628 3500
1628 3559
1628 5558
1628 5982
1628 6079
1628 6560
1628 7102
1628 7448
1628 8241
1628 9185
1629 2627
1629 2949
1629 3283
1629 3664
1629 4486
1629 4666
1629 5690
1629 6449
1629 6521
1629 7003
1629 7072
1629 7191
1629 7687
1629 7973
1629 9399
1630 2109
1630 2548
1630 4883
1630 5001
1630 5116
1630 6883
1630 6916
1630 6922
1630 7977
1630 8024
1631 2714
1631 3495
1631 3661
1631 3780
1631 4637
1631 4842
1631 6823
1631 7971
1631 8170
1631 8249
1631 8269
1631 8351
1631 8561
1631 9040
1631 9677
1631 9746
1632 3483
1632 3584
1632 3593
1632 4952
1632 4961
1632 5670
1632 6408
1632 7311
1632 7328
1632 7684
1632 7686
1632 7799
1632 8955
1632 8993
1632 9187
1632 9423
1632 9835
1633 1749
1633 1977
1633 2702
1633 2975
1633 3060
1633 3101
1633 3581
1633 3641
1633 4135
1633 4329
1633 4771
1633 5238
1633 5378
1633 5560
1633 5645
1633 5681
1633 5937
1633 6128
1633 6657
1633 7006
1633 7037
1633 7313
1633 7397
1633 7478
1633 7482
1633 7723
1633 8108
1633 8547
1633 8619
1634 2149
1634 2194
1634 2339
1634 2467
1634 2916
1634 3773
1634 3960
1634 4010
1634 4197
1634 4237
1634 4754
1634 5093
1634 5102
1634 5203
1634 5582
1634 5883
1634 6287
1634 6545
1634 6681
1634 6884
1634 7332
1634 7777
1634 7787
1634 8248
1634 8427
1634 8630
1634 9449
1634 9671
1634 9709
1634 9742
1634 9940
1635 1817
1635 2479
1635 3118
1635 4282
1635 4691
1635 5504
1635 5845
1635 6255
1635 6727
1635 7244
1635 7416
1635 8615
1635 9048
1635 9601
1636 1822
1636 2456
1636 2525
1636 2610
1636 4789
1636 4863
1636 5337
1636 5647
1636 6364
1636 6677
1636 7255
1636 7650
1636 7820
1636 8475
1636 9340
1637 2159
1637 2756
1637 3643
1637 3690
1637 4769
1637 5343
1637 5711
1637 5944
1637 7867
1637 9417
1638 1889
1638 2223
1638 3718
1638 3790
1638 4134
1638 5084
1638 5648
1638 6646
1638 7980
1638 8127
1638 8446
1638 9647
1638 9671
1639 3011
1639 3399
1639 4356
1639 4830
1639 5497
1639 5855
1639 6373
1639 7650
1639 9188
1639 9364
1640 2601
1640 2691
1640 3738
1640 3765
1640 5446
1640 6438
1640 7522
1640 7867
1640 8048
1640 8184
1641 3050
1641 3252
1641 4127
1641 4604
1641 5483
1641 7554
1641 7648
1641 9482
1642 2319
1642 2940
1642 3687
1642 4188
1642 4383
1642 4833
1642 5207
1642 6971
1642 7653
1642 7993
1642 8037
1642 8046
1642 9061
1642 9363
1643 1833
1643 2584
1643 2782
1643 2877
1643 3206
1643 3227
1643 3700
1643 3834
1643 4602
1643 5302
1643 6198
1643 6578
1643 8233
1644 1655
1644 2628
1644 3047
1644 3922
1644 4544
1644 4794
1644 5369
1644 5793
1644 9017
1644 9267
1644 9676
1645 2217
1645 2521
1645 2711
1645 2928
1645 3119
1645 3859
1645 3918
1645 4127
1645 4771
1645 5202
1645 5947
1645 6225
1645 6236
1645 6650
1645 7100
1645 9084
1646 2022
1646 3229
1646 4765
1646 5269
1646 5923
1646 6254
1646 7553
1646 8174
1646 9064
1647 1767
1647 2456
1647 4155
1647 4348
1647 5405
1647 5578
1647 5789
1647 6045
1647 6063
1647 6520
1647 6615
1647 6718
1647 7304
1647 7840
1647 8385
1647 9266
1647 9295
1647 9556
1647 9613
1648 3007
1648 3317
1648 3417
1648 4475
1648 5484
1648 5620
1648 5735
1648 6285
1648 6339
1648 7279
1648 7666
1648 7894
1648 8777
1648 9663
1649 1974
1649 2410
1649 2838
1649 4806
1649 4845
1649 7493
1649 7536
1649 7840
1649 7936
1650 3097
1650 3254
1650 3652
1650 4560
1650 4684
1650 4878
1650 6743
1650 7114
1650 8363
1650 8467
1650 9106
1650 9906
1651 1936
1651 2038
1651 2099
1651 2740
1651 6051
1651 6807
1651 7490
1651 8024
1651 8660
1651 9185
1651 9349
1651 9449
1652 1885
1652 2136
1652 2508
1652 2583
1652 2682
1652 3035
1652 3806
1652 3855
1652 3947
1652 5371
1652 5391
1652 6119
1652 7084
1652 7338
1652 7424
1652 7597
1652 7605
1652 7938
1652 8162
1652 8630
1652 9025
1652 9484
1652 9901
1653 1886
1653 2135
1653 2413
1653 2450
1653 2861
1653 4114
1653 5091
1653 6164
1653 6315
1653 8894
1653 8976
1653 9190
1654 2070
1654 2168
1654 3395
1654 5293
1654 5819
1654 5898
1654 6784
1654 7068
1654 8073
1654 8949
1655 3922
1655 4544
1655 7100
1655 7178
1655 8034
1655 8356
1655 8684
1655 9681
1656 2347
1656 6382
1656 7510
1656 7712
1656 9343
1656 9542
1656 9754
1657 2838
1657 2992
1657 3526
1657 4858
1657 5078
1657 5104
1657 6128
1657 6490
1657 6578
1657 7977
1657 8364
1657 9684
1658 2369
1658 2521
1658 2885
1658 3046
1658 3200
1658 3237
1658 3395
1658 3578
1658 3675
1658 5251
1658 5345
1658 5711
1658 5753
1658 5904
1658 5944
1658 6097
1658 6228
1658 6345
1658 7305
1658 7433
1658 7592
1658 7784
1658 8001
1658 8030
1658 8188
1658 8571
1658 8725
1658 8929
1658 9188
1658 9395
1658 9672
1659 1716
1659 2012
1659 2113
1659 3007
1659 5207
1659 5225
1659 6085
1659 6211
1659 6807
1659 8397
1659 9566
1659 9593
1660 1775
1660 1939
1660 2189
1660 2306
1660 2383
1660 2581
1660 2875
1660 3207
1660 3289
1660 3312
1660 3356
1660 3792
1660 4042
1660 4120
1660 4134
1660 4249
1660 4724
1660 4929
1660 5378
1660 5880
1660 5884
1660 5970
1660 5986
1660 6378
1660 6398
1660 6646
1660 6818
1660 7305
1660 7583
1660 7635
1660 7814
1660 8224
1660 8371
1660 8867
1660 8990
1660 9117
1660 9911
1661 2109
1661 2635
1661 2678
1661 3193
1661 3404
1661 4074
1661 5226
1661 6291
1661 6626
1661 7449
1661 9769
1661 9911
1662 2785
1662 3735
1662 4273
1662 4543
1662 5350
1662 6177
1662 6309
1662 6437
1662 6774
1662 7225
1662 7272
1662 7313
1662 7794
1662 8403
1662 8681
1662 8878
1662 9013
1663 1744
1663 2566
1663 2715
1663 2873
1663 5464
1663 5491
1663 5730
1663 6091
1663 7552
1663 7833
1664 1815
1664 4437
1664 5030
1664 5048
1664 6633
1664 6916
1664 7714
1664 8476
1664 9581
1664 9721
1665 1924
1665 2033
1665 2113
1665 2570
1665 3200
1665 3480
1665 4096
1665 4294
1665 4709
1665 5071
1665 6413
1665 6806
1665 6898
1665 6984
1665 7125
1665 7493
1665 7502
1665 7723
1665 7913
1665 8351
1665 8478
1665 8487
1665 8786
1665 8938
1665 9379
1665 9656
1665 9902
1666 2219
1666 2255
1666 2753
1666 6777
1666 7776
1666 7954
1666 8280
1666 8579
1666 8629
1666 9021
1666 9382
1666 9647
1666 9763
1666 9963
1667 1693
1667 3101
1667 4007
1667 4057
1667 4678
1667 4730
1667 5021
1667 5246
1667 6143
1667 6317
1667 8656
1668 1734
1668 2192
1668 2877
1668 3252
1668 3792
1668 3814
1668 3956
1668 5511
1668 5980
1668 6105
1668 6225
1668 6559
1668 7148
1668 7831
1668 8814
1668 9070
1668 9151
1669 2321
1669 2358
1669 2368
1669 2427
1669 2484
1669 2910
1669 3414
1669 3655
1669 3758
1669 3865
1669 4325
1669 4917
1669 5316
1669 5854
1669 6570
1669 7197
1669 8646
1669 8909
1669 8971
1669 9977
1670 3152
1670 3180
1670 4425
1670 4429
1670 4512
1670 6118
1670 6142
1670 7346
1670 7351
1670 8175
1671 1686
1671 2017
1671 2507
1671 2768
1671 4026
1671 4075
1671 5094
1671 5122
1671 5186
1671 5752
1671 5756
1671 5798
1671 6443
1671 6613
1671 7424
1671 7577
1671 7877
1671 8044
1671 8528
1671 8633
1671 8854
1671 8961
1671 9031
1671 9581
1672 1786
1672 1790
1672 2012
1672 4026
1672 4365
1672 4596
1672 6611
1672 6721
1672 6807
1672 6896
1672 7978
1672 9118
1672 9216
1672 9228
1672 9736
1673 2033
1673 2138
1673 2147
1673 2442
1673 2797
1673 3080
1673 3183
1673 3465
1673 4852
1673 5105
1673 5422
1673 5739
1673 6184
1673 6302
1673 6376
1673 7001
1673 7477
1673 8716
1673 8989
1673 9289
1674 2495
1674 2753
1674 2765
1674 2814
1674 3834
1674 4921
1674 5877
1674 6042
1674 6418
1674 7601
1674 7817
1674 7935
1674 8526
1675 1833
1675 4169
1675 4317
1675 4534
1675 5501
1675 6984
1675 8457
1675 8646
1675 8764
1675 9414
1675 9952
1676 2075
1676 2426
1676 2562
1676 3546
1676 3732
1676 4178
1676 4587
1676 7059
1676 8689
1676 9071
1676 9205
1676 9466
1677 1877
1677 2045
1677 2739
1677 4843
1677 4935
1677 5444
1677 5803
1677 7443
1677 7757
1677 7901
1677 8869
1677 9153
1677 9651
1678 2233
1678 3001
1678 3158
1678 3392
1678 3406
1678 4185
1678 4760
1678 5654
1678 6746
1678 7953
1678 8241
1678 9010
1678 9061
1678 9725
1678 9914
1679 2313
1679 2571
1679 4727
1679 5136
1679 6820
1679 7745
1679 8216
1679 8627
1679 8646
1680 2225
1680 2768
1680 3055
1680 3114
1680 3577
1680 4754
1680 5241
1680 7851
1680 7929
1680 8798
1680 8822
1680 9580
1680 9844
1680 9914
1681 2686
1681 2692
1681 2975
1681 3302
1681 3875
1681 4423
1681 4549
1681 5468
1681 5490
1681 5828
1681 7236
1681 7394
1681 7982
1681 9171
1681 9241
1681 9635
1681 9684
1681 9723
1681 9761
1682 1977
1682 1994
1682 2296
1682 2890
1682 2990
1682 3210
1682 3351
1682 3952
1682 5170
1682 5739
1682 5901
1682 6341
1682 9383
1682 9731
1682 9750
1683 1827
1683 1858
1683 1931
1683 2588
1683 2969
1683 3055
1683 3093
1683 3793
1683 3889
1683 3989
1683 4015
1683 4117
1683 4153
1683 4305
1683 4330
1683 4555
1683 4923
1683 5076
1683 5081
1683 5252
1683 5422
1683 5548
1683 5561
1683 6402
1683 6442
1683 7137
1683 7193
1683 7563
1683 7618
1683 7762
1683 7819
1683 7831
1683 7855
1683 7928
1683 8630
1683 8778
1683 9257
1683 9291
1683 9855
1683 9977
1684 1844
1684 3270
1684 4835
1684 5365
1684 6054
1684 6289
1684 6672
1684 7288
1684 7610
1684 8273
1684 8926
1684 8992
1684 9053
1684 9230
1685 1971
1685 2192
1685 2490
1685 3530
1685 4807
1685 5324
1685 5445
1685 5464
1685 5532
1685 5661
1685 5938
1685 6122
1685 9133
1686 1690
1686 2060
1686 2208
1686 2532
1686 2992
1686 3031
1686 3089
1686 3192
1686 3314
1686 3330
1686 3445
1686 3841
1686 3881
1686 4049
1686 4416
1686 4545
1686 4761
1686 4965
1686 5003
1686 5033
1686 5145
1686 5243
1686 5304
1686 5515
1686 5816
1686 6043
1686 6099
1686 6387
1686 6665
1686 6703
1686 7473
1686 7696
1686 7745
1686 8221
1686 8568
1686 8884
1686 9458
1686 9599
1687 2921
1687 3049
1687 3177
1687 3546
1687 3806
1687 4587
1687 4889
1687 5315
1687 5881
1687 6142
1687 6274
1687 6641
1687 6898
1687 8261
1687 8557
1687 9067
1687 9398
1688 2403
1688 3126
1688 3659
1688 4063
1688 4550
1688 5894
1688 6332
1688 6970
1688 7628
1688 7720
1688 7809
1688 7995
1688 8270
1688 9053
1688 9467
1688 9581
1688 9978
1689 1964
1689 2007
1689 2905
1689 3507
1689 3601
1689 4338
1689 5223
1689 5517
1689 5675
1689 5707
1689 7212
1689 7474
1689 7595
1689 8897
1690 1985
1690 2185
1690 2419
1690 2422
1690 2596
1690 2983
1690 3704
1690 3750
1690 3792
1690 3895
1690 4092
1690 4522
1690 4749
1690 4989
1690 5238
1690 5452
1690 5666
1690 5758
1690 5831
1690 6113
1690 6326
1690 6636
1690 6974
1690 7166
1690 7248
1690 7356
1690 7523
1690 7642
1690 7743
1690 8196
1690 8441
1690 8446
1690 8475
1690 8882
1690 8933
1690 9333
1690 9522
1690 9628
1691 3148
1691 3628
1691 4239
1691 4355
1691 4744
1691 4988
1691 5684
1691 6863
1691 6941
1691 7016
1691 7551
1691 7661
1691 7750
1691 7939
1691 8117
1691 8215
1691 8300
1691 9071
1691 9681
1692 2049
1692 2159
1692 3286
1692 3834
1692 6181
1692 6431
1692 7309
1692 8574
1692 8737
1692 9028
1692 9772
1692 9853
1692 9886
1693 2329
1693 3044
1693 4057
1693 4451
1693 4678
1693 5246
1693 5557
1693 5849
1693 7175
1693 7661
1693 7827
1693 8427
1693 8920
1693 9597
1693 9755
1694 2444
1694 5242
1694 5726
1694 6256
1694 6784
1694 7436
1694 7488
1694 8521
1694 8970
1695 1701
1695 2492
1695 2931
1695 3445
1695 3693
1695 3825
1695 4128
1695 5227
1695 5999
1695 6537
1695 6704
1695 6723
1695 6941
1695 8133
1695 9351
1695 9938
1696 2398
1696 2423
1696 2981
1696 3456
1696 6823
1696 6884
1696 6956
1696 7642
1696 8225
1696 8392
1697 1750
1697 1767
1697 2039
1697 2391
1697 2768
1697 3291
1697 3860
1697 4300
1697 5209
1697 6004
1697 6911
1697 6998
1697 7021
1697 8207
1697 8475
1698 1834
1698 2202
1698 2676
1698 3979
1698 5891
1698 7866
1698 8741
1698 9077
1698 9558
1698 9750
1699 2954
1699 3004
1699 3624
1699 3651
1699 4707
1699 4735
1699 5350
1699 5711
1699 5797
1699 6599
1699 7061
1699 7928
1699 7970
1699 9287
1700 1780
1700 1831
1700 1876
1700 2130
1700 2552
1700 2835
1700 2865
1700 4120
1700 4207
1700 4618
1700 4738
1700 6600
1700 6986
1700 7230
1700 8791
1700 9130
1700 9334
1700 9532
1701 2441
1701 2951
1701 2987
1701 3652
1701 3662
1701 5927
1701 6410
1701 6453
1701 6986
1701 7348
1701 7760
1701 7864
1701 9035
1702 2847
1702 2988
1702 3154
1702 5261
1702 5272
1702 6986
1702 7102
1702 8033
1702 9152
1703 2450
1703 2787
1703 3035
1703 3537
1703 3637
1703 4470
1703 5428
1703 6446
1703 6692
1703 7075
1703 8313
1703 9172
1704 2121
1704 3350
1704 4378
1704 4868
1704 6970
1704 7137
1704 9800
1705 2146
1705 2455
1705 2482
1705 2848
1705 2934
1705 3105
1705 3465
1705 3621
1705 4783
1705 4788
1705 4816
1705 5250
1705 5335
1705 5352
1705 5382
1705 5510
1705 5618
1705 5801
1705 7245
1705 7337
1705 7467
1705 7893
1705 7942
1705 8161
1705 8234
1705 8258
1705 8263
1705 8406
1705 8669
1705 8744
1705 8865
1705 8989
1705 9040
1705 9246
1706 1871
1706 2046
1706 2224
1706 2446
1706 2507
1706 2827
1706 3408
1706 4244
1706 4693
1706 4723
1706 5270
1706 5498
1706 6063
1706 6829
1706 6845
1706 8044
1706 8725
1706 8819
1706 9372
1707 2961
1707 3071
1707 3176
1707 4969
1707 4986
1707 5419
1707 6194
1707 8316
1707 9510
1708 3116
1708 3639
1708 3660
1708 6061
1708 6217
1708 6397
1708 6661
1708 6997
1708 7035
1708 7275
1708 8285
1709 1767
1709 2004
1709 2945
1709 3560
1709 3790
1709 4519
1709 4667
1709 5115
1709 5506
1709 5780
1709 5845
1709 7164
1709 7225
1709 9039
1710 1806
1710 2134
1710 2150
1710 2260
1710 2936
1710 3335
1710 5679
1710 6731
1710 7831
1710 8870
1710 9630
1711 1904
1711 2003
1711 2019
1711 2185
1711 2389
1711 3693
1711 3967
1711 4320
1711 5435
1711 5444
1711 5710
1711 6364
1711 6641
1711 6946
1711 7166
1711 7794
1711 7928
1711 8034
1711 8300
1711 8613
1711 9654
1711 9726
1712 3315
1712 3562
1712 3569
1712 4970
1712 5784
1712 6359
1712 7452
1712 9224
1713 2600
1713 2750
1713 3018
1713 3623
1713 3865
1713 4274
1713 4462
1713 4866
1713 5729
1713 5879
1713 6099
1713 6191
1713 6674
1713 6904
1713 8356
1713 8592
1713 8839
1713 9142
1713 9218
1713 9353
1713 9556
1714 2275
1714 2391
1714 4308
1714 4439
1714 5598
1714 5862
1714 5891
1714 7110
1714 7344
1714 8421
1714 9640
1714 9962
1715 2254
1715 2718
1715 2864
1715 3559
1715 4479
1715 4483
1715 4804
1715 5080
1715 5231
1715 5310
1715 5816
1715 6061
1715 6314
1715 6381
1715 6841
1715 7455
1715 7482
1715 7694
1715 7915
1715 8047
1715 8133
1715 8918
1715 9023
1716 1782
1716 1833
1716 1883
1716 2125
1716 2518
1716 2540
1716 2602
1716 2964
1716 3341
1716 3538
1716 3594
1716 3732
1716 3801
1716 4141
1716 4284
1716 4823
1716 4925
1716 4980
1716 5340
1716 5727
1716 5984
1716 6064
1716 6228
1716 6249
1716 6315
1716 6705
1716 6916
1716 7202
1716 8695
1716 9010
1716 9384
1716 9497
1716 9885
1716 9912
1717 1720
1717 1737
1717 2006
1717 2946
1717 4020
1717 4134
1717 4150
1717 5649
1717 6198
1717 6369
1717 6389
1717 6444
1717 6472
1717 6612
1717 7418
1717 7481
1717 8208
1717 9249
1717 9421
1717 9733
1718 1963
1718 2432
1718 3795
1718 3848
1718 4170
1718 4884
1718 5523
1718 5557
1718 6244
1718 6351
1718 6573
1718 6909
1718 7097
1718 7402
1718 7646
1718 7922
1718 8287
1718 8292
1718 9108
1718 9250
1719 1892
1719 2833
1719 3187
1719 4296
1719 4564
1719 5155
1719 5928
1719 6053
1719 6287
1719 6970
1719 8148
1719 8348
1719 8885
1719 9197
1719 9692
1720 2490
1720 2512
1720 3040
1720 3118
1720 3277
1720 3348
1720 3828
1720 4134
1720 4307
1720 4347
1720 4420
1720 5462
1720 6068
1720 7195
1720 8695
1720 9060
1720 9460
1720 9748
1720 9853
1720 9923
1721 2085
1721 3275
1721 4654
1721 5477
1721 5655
1721 6155
1721 6268
1721 6470
1721 7404
1721 7718
1721 7913
1721 8428
1721 9232
1722 1909
1722 2203
1722 5019
1722 5086
1722 5123
1722 5172
1722 5637
1722 5873
1722 6659
1722 6793
1722 6954
1722 7643
1722 7893
1722 9833
1723 1775
1723 1985
1723 2033
1723 2052
1723 2091
1723 2256
1723 2541
1723 2794
1723 3121
1723 3136
1723 3915
1723 4152
1723 4167
1723 4290
1723 4433
1723 4615
1723 4633
1723 5101
1723 5103
1723 5339
1723 5600
1723 5778
1723 5793
1723 6320
1723 6836
1723 7138
1723 7158
1723 7703
1723 7740
1723 7793
1723 7967
1723 8413
1723 8821
1723 8852
1723 9135
1723 9180
1723 9681
1724 2014
1724 2172
1724 2405
1724 2533
1724 3424
1724 3778
1724 4050
1724 4481
1724 4814
1724 5134
1724 5655
1724 5768
1724 5907
1724 6578
1724 6782
1724 8574
1724 8648
1724 9380
1724 9440
1725 2271
1725 2563
1725 2818
1725 3150
1725 4491
1725 4637
1725 4663
1725 5124
1725 5735
1725 5980
1725 6516
1725 6757
1725 7194
1725 7808
1725 8116
1725 8255
1725 8373
1725 8620
1725 8763
1725 9766
1726 1734
1726 2071
1726 2247
1726 2499
1726 3087
1726 3372
1726 3733
1726 4794
1726 5032
1726 5505
1726 6843
1726 6902
1726 7350
1726 7672
1726 8827
1727 1946
1727 2322
1727 2484
1727 2597
1727 2768
1727 2915
1727 3999
1727 4058
1727 4478
1727 5032
1727 5103
1727 5980
1727 6669
1727 6895
1727 7400
1727 7704
1727 8454
1727 8859
1727 9030
1728 2206
1728 2397
1728 2820
1728 3487
1728 4536
1728 4780
1728 5231
1728 5293
1728 6893
1728 7046
1728 7201
1728 7335
1728 7822
1728 8941
1728 9169
1729 2723
1729 3890
1729 4108
1729 4136
1729 4992
1729 5365
1729 6257
1729 6649
1729 6797
1729 7694
1729 7881
1729 8034
1729 8102
1729 8307
1729 8341
1729 9342
1729 9472
1730 2014
1730 2852
1730 3688
1730 4129
1730 4823
1730 5206
1730 5854
1730 5910
1730 5950
1730 6518
1730 7164
1730 7318
1730 7506
1730 7600
1730 8024
1730 8229
1730 8824
1730 9243
1730 9571
1731 3087
1731 3300
1731 6782
1731 6840
1731 7871
1731 8019
1732 1760
1732 1854
1732 2024
1732 2132
1732 3061
1732 3137
1732 3383
1732 3430
1732 3834
1732 4172
1732 4913
1732 5191
1732 5194
1732 5577
1732 6027
1732 6431
1732 6508
1732 7382
1732 7931
1732 8221
1732 9065
1732 9601
1732 9772
1732 9788
1732 9886
1733 1742
1733 1966
1733 2459
1733 2521
1733 2656
1733 3465
1733 3993
1733 4842
1733 4961
1733 6031
1733 6903
1733 9068
1734 2616
1734 3090
1734 3273
1734 3543
1734 4608
1734 5228
1734 6941
1734 7293
1734 8309
1734 8398
1734 9061
1734 9908
1734 9948
1735 1839
1735 2143
1735 4584
1735 4621
1735 6017
1735 7423
1735 8402
1735 8521
1735 8617
1735 8865
1735 9211
1736 2119
1736 2316
1736 2355
1736 2491
1736 2595
1736 2621
1736 2864
1736 3008
1736 3865
1736 4086
1736 4285
1736 4750
1736 4777
1736 4807
1736 4850
1736 5069
1736 5100
1736 5208
1736 5793
1736 5852
1736 6192
1736 6232
1736 6513
1736 6729
1736 6891
1736 6990
1736 7139
1736 7722
1736 7818
1736 8110
1736 8202
1736 8266
1736 8656
1736 8976
1736 9057
1736 9509
1737 3911
1737 4074
1737 5038
1737 5464
1737 5525
1737 5776
1737 6943
1737 7035
1737 8243
1738 2310
1738 2369
1738 2774
1738 3388
1738 4726
1738 5400
1738 6430
1738 6469
1738 6992
1739 1764
1739 2634
1739 3296
1739 4067
1739 4197
1739 4558
1739 6818
1739 6890
1739 7331
1739 7895
1740 2438
1740 2458
1740 3464
1740 4745
1740 4765
1740 7817
1740 8326
1740 8368
1740 8681
1740 9505
1740 9686
1740 9853
1741 2230
1741 2445
1741 3807
1741 3813
1741 4574
1741 4870
1741 5060
1741 6280
1741 6474
1741 7628
1741 7661
1741 8233
1741 8310
1741 8585
1741 9255
1742 2656
1742 3007
1742 3020
1742 3275
1742 4758
1742 5061
1742 5827
1742 6933
1742 7086
1742 9647
1742 9880
1743 1865
1743 2679
1743 2689
1743 2941
1743 3895
1743 4276
1743 4771
1743 5673
1743 6417
1743 6909
1743 7258
1743 8476
1743 9059
1743 9138
1744 1925
1744 2219
1744 2506
1744 2519
1744 2566
1744 2715
1744 2764
1744 2822
1744 2841
1744 2860
1744 2869
1744 2922
1744 3397
1744 3403
1744 3612
1744 3751
1744 3794
1744 4685
1744 5356
1744 5418
1744 5918
1744 6091
1744 7364
1744 7440
1744 7576
1744 7681
1744 8425
1744 8585
1744 8687
1744 8741
1744 8763
1744 9429
1744 9775
1745 2849
1745 2994
1745 3063
1745 3555
1745 4061
1745 4401
1745 4423
1745 4781
1745 5106
1745 5758
1745 5782
1745 5921
1745 6557
1745 6590
1745 6941
1745 7015
1745 7027
1745 7197
1745 7454
1745 7799
1745 8749
1745 8956
1745 9414
1745 9842
1746 2120
1746 2775
1746 2838
1746 3257
1746 4001
1746 4074
1746 4352
1746 4594
1746 5180
1746 5515
1746 5919
1746 5971
1746 5996
1746 6404
1746 7624
1746 8851
1746 8925
1747 2127
1747 2550
1747 2732
1747 2841
1747 4589
1747 5002
1747 6476
1747 6846
1747 8262
1747 8794
1748 3167
1748 3668
1748 5370
1748 5523
1748 7598
1748 9136
1748 9391
1748 9530
1749 1896
1749 2159
1749 2514
1749 2550
1749 3172
1749 5343
1749 7279
1749 7918
1749 8385
1749 8392
1749 8840
1749 9244
1750 3267
1750 3721
1750 4500
1750 4878
1750 6457
1750 6916
1750 7210
1750 7442
1750 8240
1750 9091
1750 9307
1750 9371
1750 9647
1751 1791
1751 1804
1751 1893
1751 3164
1751 3435
1751 3482
1751 3635
1751 3878
1751 5330
1751 6529
1751 6566
1751 7233
1751 7453
1751 8411
1751 8549
1751 9859
1752 1829
1752 1894
1752 2394
1752 2572
1752 3650
1752 4490
1752 4749
1752 4865
1752 5811
1752 5823
1752 7791
1752 9203
1752 9839
1753 2753
1753 3847
1753 5393
1753 5928
1753 6116
1753 7925
1754 2895
1754 3043
1754 3806
1754 3918
1754 5360
1754 5615
1754 5738
1754 5880
1754 6577
1754 7279
1754 7335
1754 7887
1754 8032
1754 8674
1755 1805
1755 1984
1755 2446
1755 2485
1755 2956
1755 4100
1755 4387
1755 4671
1755 4839
1755 4859
1755 5190
1755 5485
1755 5650
1755 5854
1755 5918
1755 5930
1755 5938
1755 5992
1755 7362
1755 7628
1755 7796
1755 8068
1755 8770
1755 9088
1755 9392
1755 9546
1755 9807
1755 9874
1755 9901
1756 2813
1756 2890
1756 3817
1756 3910
1756 3962
1756 4091
1756 7231
1756 8173
1757 1815
1757 2623
1757 3704
1757 3928
1757 4174
1757 5579
1757 5836
1757 6084
1757 6161
1757 6842
1757 6891
1757 9378
1758 1793
1758 2460
1758 2555
1758 2719
1758 3045
1758 3286
1758 3823
1758 3934
1758 3990
1758 4326
1758 5853
1758 5867
1758 6027
1758 6157
1758 6174
1758 7670
1758 7854
1758 7887
1758 8646
1758 9052
1758 9300
1758 9729
1759 2130
1759 2755
1759 2772
1759 3179
1759 3851
1759 4108
1759 4214
1759 4686
1759 4854
1759 5776
1759 5810
1759 6252
1759 6969
1759 8001
1759 8034
1759 8465
1759 9126
1759 9569
1759 9649
1760 4716
1760 4936
1760 5333
1760 7339
1760 9512
1761 2106
1761 2283
1761 2479
1761 2635
1761 2677
1761 2860
1761 3143
1761 3427
1761 3864
1761 5705
1761 6147
1761 6213
1761 6752
1761 7555
1761 8087
1761 8133
1761 8200
1761 9502
1761 9598
1762 2495
1762 2538
1762 2707
1762 3246
1762 3408
1762 3852
1762 5526
1762 5711
1762 7619
1762 7788
1762 8571
1762 8595
1762 8830
1762 9094
1762 9689
1762 9754
1763 3876
1763 4088
1763 5842
1763 7059
1763 7229
1763 8860
1763 9083
1764 1938
1764 2575
1764 4221
1764 4462
1764 4501
1764 5138
1764 5155
1764 5213
1764 5657
1764 6368
1764 6482
1764 7709
1764 8885
1764 9013
1765 1903
1765 2328
1765 2578
1765 2665
1765 3787
1765 4313
1765 4495
1765 4739
1765 5815
1765 7138
1765 7354
1765 7368
1765 8268
1766 1874
1766 2328
1766 2529
1766 3229
1766 3668
1766 5111
1766 5972
1766 6149
1766 7287
1766 8597
1766 9475
1767 1859
1767 2004
1767 2061
1767 2347
1767 2454
1767 2661
1767 3381
1767 3495
1767 3633
1767 3838
1767 4007
1767 4413
1767 4620
1767 4918
1767 6344
1767 6572
1767 6613
1767 6897
1767 7412
1767 7447
1767 7463
1767 7569
1767 8084
1767 8306
1767 8567
1767 8729
1767 8880
1767 9347
1767 9815
1768 3559
1768 3661
1768 4638
1768 4923
1768 5344
1768 5493
1768 5738
1768 6242
1768 7103
1768 7200
1768 7399
1768 7795
1768 9628
1768 9731
1769 3537
1769 3965
1769 4255
1769 5481
1769 5766
1769 6098
1769 6370
1769 7157
1769 7977
1770 2609
1770 2888
1770 2920
1770 3068
1770 4682
1770 7328
1770 7517
1770 7815
1770 7949
1770 9343
1770 9958
1771 2016
1771 2435
1771 2726
1771 3294
1771 3733
1771 4551
1771 4595
1771 4733
1771 4773
1771 4897
1771 5144
1771 5248
1771 6909
1771 9068
1771 9358
1772 2828
1772 3410
1772 4048
1772 4268
1772 4968
1772 6008
1772 6991
1772 8819
1772 8981
1772 9100
1772 9223
1772 9939
1773 2712
1773 2997
1773 3709
1773 4158
1773 4242
1773 5894
1773 6150
1773 7118
1773 7759
1773 8936
1774 2408
1774 2440
1774 3087
1774 3671
1774 3802
1774 3831
1774 3904
1774 4216
1774 4433
1774 4576
1774 4700
1774 5156
1774 5223
1774 5305
1774 5324
1774 5540
1774 5860
1774 6059
1774 6106
1774 6410
1774 6510
1774 6916
1774 6930
1774 6965
1774 7054
1774 7103
1774 7325
1774 7409
1774 7976
1774 7977
1774 8123
1774 8955
1774 9241
1774 9520
1775 3967
1775 4031
1775 4372
1775 5572
1775 5963
1775 6972
1775 7829
1775 7928
1775 8138
1775 8176
1775 8907
1775 9814
1775 9902
1775 9908
1776 1882
1776 2059
1776 3088
1776 5042
1776 5267
1776 5651
1776 6444
1776 8166
1776 8220
1776 9313
1776 9454
1776 9457
1776 9526
1777 1828
1777 2579
1777 4341
1777 4573
1777 5837
1777 5882
1777 5925
1777 7610
1777 7872
1777 8573
1777 8990
1777 9173
1778 2249
1778 2319
1778 3942
1778 4562
1778 4647
1778 5023
1778 5291
1778 6021
1778 6062
1778 6176
1778 6828
1778 7118
1778 8009
1778 8148
1778 8171
1778 8740
1778 8766
1778 9117
1779 2569
1779 2590
1779 3195
1779 3655
1779 3661
1779 6084
1779 6327
1779 6373
1779 7535
1779 7670
1779 9202
1779 9247
1780 2041
1780 2130
1780 2512
1780 2514
1780 2774
1780 2865
1780 4038
1780 4120
1780 4378
1780 4407
1780 4470
1780 4738
1780 5238
1780 5373
1780 5743
1780 5811
1780 5880
1780 6406
1780 6525
1780 6600
1780 7230
1780 7331
1780 7343
1780 7923
1780 8157
1780 8236
1780 8406
1780 8702
1780 8837
1780 9065
1780 9135
1780 9260
1780 9356
1780 9385
1780 9532
1780 9823
1781 2909
1781 2992
1781 3171
1781 3493
1781 3797
1781 4418
1781 4589
1781 4760
1781 4991
1781 5680
1781 6252
1781 7078
1781 7261
1781 8002
1781 8372
1781 8409
1781 8491
1781 8731
1781 8738
1781 8958
1781 9304
1781 9788
1782 1904
1782 2021
1782 2360
1782 2860
1782 2866
1782 2949
1782 3092
1782 3106
1782 3304
1782 3307
1782 3359
1782 3441
1782 3512
1782 3526
1782 3813
1782 3946
1782 4172
1782 4284
1782 4318
1782 4580
1782 5174
1782 5641
1782 5742
1782 5753
1782 6439
1782 6962
1782 7033
1782 7071
1782 7460
1782 7552
1782 8037
1782 8067
1782 8110
1782 8147
1782 8290
1782 8513
1782 9038
1782 9432
1783 1836
1783 2616
1783 3238
1783 3910
1783 4192
1783 4278
1783 4715
1783 5104
1783 5363
1783 5952
1783 6063
1783 6270
1783 6362
1783 6513
1783 6675
1783 6801
1783 7210
1783 7473
1783 7896
1783 8339
1783 9149
1783 9489
1783 9744
1784 1938
1784 3071
1784 4066
1784 4335
1784 4935
1784 5015
1784 5253
1784 5400
1784 5803
1784 5817
1784 6637
1784 6834
1784 7443
1784 7901
1784 8798
1785 1815
1785 2355
1785 3711
1785 4427
1785 5089
1785 5281
1785 5446
1785 7934
1785 9826
1785 9985
1786 1873
1786 2987
1786 3458
1786 4844
1786 5717
1786 6447
1786 6483
1786 6571
1786 7548
1786 8010
1786 8636
1786 8809
1786 9248
1786 9550
1786 9581
1786 9593
1787 2443
1787 3649
1787 3740
1787 4323
1787 7129
1787 7267
1787 7751
1787 8059
1787 9042
1788 1854
1788 1920
1788 3583
1788 3882
1788 4762
1788 5729
1788 6925
1788 8181
1788 8372
1788 8955
1789 3923
1789 3972
1789 4005
1789 4709
1789 6358
1789 6944
1789 7004
1789 7667
1789 7819
1789 8323
1789 8761
1789 9065
1790 2036
1790 2072
1790 3998
1790 4714
1790 5106
1790 5113
1790 5284
1790 6352
1790 8242
1790 9037
1790 9170
1790 9175
1790 9889
1790 9899
1791 2159
1791 4073
1791 4268
1791 4600
1791 5653
1791 5845
1791 5969
1791 7084
1791 7724
1791 8089
1791 8760
1791 9371
1791 9809
1792 1839
1792 2529
1792 2921
1792 3172
1792 4266
1792 6114
1792 6473
1792 6934
1792 7665
1792 7898
1792 8085
1792 9247
1793 1831
1793 1850
1793 2009
1793 2034
1793 2307
1793 2781
1793 3049
1793 3135
1793 3365
1793 3431
1793 3694
1793 4592
1793 5792
1793 5819
1793 6106
1793 6161
1793 6648
1793 6956
1793 7208
1793 7319
1793 7442
1793 7575
1793 7867
1793 8177
1793 8443
1793 8461
1793 8516
1793 8640
1793 9084
1793 9215
1793 9247
1793 9515
1793 9775
1794 2617
1794 3921
1794 4041
1794 4428
1794 4533
1794 6174
1794 6259
1794 7160
1794 8481
1794 8810
1794 8861
1794 8929
1794 9169
1794 9816
1795 2241
1795 4128
1795 4566
1795 7082
1795 7178
1795 7281
1795 8081
1796 3173
1796 3427
1796 3664
1796 5550
1796 6979
1796 7297
1796 7306
1796 7719
1797 1802
1797 1839
1797 1919
1797 2158
1797 2348
1797 2775
1797 2856
1797 2983
1797 3541
1797 4760
1797 5024
1797 5080
1797 5399
1797 5731
1797 6010
1797 6312
1797 6493
1797 8769
1797 8980
1798 2414
1798 5299
1798 7207
1798 7764
1798 8357
1798 9863
1799 1946
1799 2007
1799 2137
1799 2491
1799 2588
1799 3356
1799 3593
1799 4329
1799 4334
1799 5281
1799 5576
1799 5950
1799 6576
1799 7286
1799 7913
1799 7928
1799 8114
1799 8328
1799 8509
1799 9050
1800 2937
1800 3667
1800 3809
1800 3975
1800 5968
1800 8965
1800 9107
1800 9257
1800 9259
1800 9338
1800 9977
1801 1936
1801 1971
1801 2328
1801 2970
1801 4601
1801 4785
1801 4945
1801 7156
1801 7735
1801 7833
1801 7900
1801 8079
1801 8782
1801 8933
1802 2725
1802 5302
1802 5399
1802 5589
1802 5731
1802 5733
1802 5888
1802 6312
1802 7233
1802 7823
1802 7896
1802 8769
1802 8881
1802 8993
1803 3584
1803 3596
1803 4400
1803 4563
1803 4602
1803 4771
1803 5807
1803 6013
1803 6583
1803 6683
1803 7228
1803 8022
1803 8191
1803 8351
1803 9024
1803 9037
1804 2374
1804 3230
1804 3547
1804 3850
1804 4550
1804 5264
1804 5510
1804 5522
1804 5559
1804 5688
1804 6254
1804 7319
1804 8480
1804 9022
1805 1888
1805 1971
1805 2328
1805 2896
1805 2905
1805 4206
1805 5699
1805 6343
1805 6804
1805 7233
1805 7338
1805 8100
1805 8576
1806 3199
1806 3589
1806 3612
1806 3693
1806 4017
1806 4827
1806 4991
1806 5070
1806 5349
1806 5452
1806 5527
1806 5936
1806 6062
1806 7817
1806 8037
1806 9680
1806 9756
1806 9959
1807 2117
1807 2728
1807 3121
1807 3625
1807 4177
1807 4193
1807 5401
1807 6714
1807 7334
1807 7904
1807 8782
1808 3524
1808 3614
1808 4797
1808 6756
1808 6887
1808 7194
1808 7553
1808 7653
1808 8119
1808 9445
1809 1963
1809 2122
1809 2205
1809 2267
1809 2418
1809 2606
1809 2900
1809 3384
1809 3481
1809 3590
1809 3832
1809 4000
1809 4429
1809 5269
1809 5387
1809 5499
1809 5668
1809 5907
1809 6249
1809 6307
1809 6962
1809 7233
1809 7383
1809 7815
1809 7840
1809 8445
1809 8897
1809 9164
1809 9387
1809 9438
1809 9602
1809 9611
1809 9937
1810 2209
1810 3899
1810 4722
1810 5442
1810 5972
1810 6896
1810 7911
1810 8246
1810 9663
1810 9692
1810 9927
1811 1918
1811 2559
1811 2596
1811 2858
1811 3674
1811 3871
1811 3980
1811 4214
1811 4222
1811 4601
1811 4971
1811 5180
1811 5342
1811 5860
1811 6065
1811 6453
1811 6546
1811 6667
1811 6885
1811 7941
1811 7943
1811 8019
1811 8175
1811 8284
1811 9249
1811 9370
1811 9787
1811 9863
1812 2023
1812 2157
1812 2260
1812 2733
1812 2795
1812 3461
1812 3462
1812 3501
1812 3576
1812 4133
1812 4181
1812 4804
1812 4819
1812 4850
1812 5756
1812 5884
1812 6148
1812 6200
1812 6316
1812 6372
1812 6483
1812 6764
1812 6963
1812 7229
1812 7577
1812 8606
1812 8666
1812 8782
1812 9463
1813 3519
1813 3574
1813 3651
1813 4054
1813 4061
1813 4627
1813 4798
1813 4842
1813 5452
1813 6397
1813 6649
1813 7269
1813 7415
1813 8102
1814 2320
1814 3572
1814 3580
1814 4626
1814 6500
1814 7038
1814 9467
1814 9612
1814 9651
1815 2348
1815 2563
1815 2623
1815 2994
1815 3095
1815 3745
1815 3752
1815 3941
1815 4211
1815 4502
1815 5055
1815 5058
1815 5169
1815 5410
1815 5546
1815 5579
1815 5836
1815 6038
1815 6352
1815 6426
1815 6771
1815 7098
1815 7202
1815 7414
1815 7889
1815 7941
1815 8155
1815 8706
1815 8824
1815 9285
1815 9867
1816 1877
1816 3181
1816 3813
1816 3853
1816 4246
1816 4507
1816 6622
1816 7521
1816 7891
1816 8553
1816 9577
1817 1845
1817 3274
1817 3971
1817 4415
1817 5038
1817 5939
1817 6162
1817 6881
1817 7504
1817 8069
1817 8860
1817 8943
1817 9442
1817 9657
1818 1974
1818 2084
1818 2578
1818 2757
1818 2758
1818 3209
1818 3840
1818 4367
1818 4461
1818 4578
1818 4606
1818 4912
1818 4924
1818 5017
1818 5079
1818 5326
1818 5574
1818 6100
1818 6307
1818 7505
1818 8088
1818 8696
1818 9350
1818 9421
1818 9425
1818 9434
1818 9484
1818 9769
1818 9969
1819 1844
1819 2200
1819 2456
1819 2464
1819 3077
1819 3599
1819 3849
1819 4993
1819 6645
1819 6779
1819 7730
1819 8652
1820 2706
1820 3434
1820 4604
1820 4762
1820 6264
1820 6295
1820 6569
1820 7524
1820 7689
1820 7816
1820 8107
1820 8542
1820 9186
1821 2897
1821 3515
1821 4011
1821 4070
1821 4178
1821 4977
1821 4989
1821 6856
1821 7708
1821 8195
1821 8696
1821 9203
1821 9253
1821 9384
1821 9800
1822 1832
1822 2430
1822 2903
1822 4498
1822 5750
1822 5970
1822 6077
1822 6187
1822 7255
1822 7980
1822 8087
1822 8824
1822 8936
1822 9232
1822 9351
1823 1914
1823 2323
1823 2502
1823 3485
1823 3581
1823 4177
1823 4550
1823 4968
1823 5223
1823 5566
1823 5716
1823 5822
1823 6146
1823 6497
1823 6673
1823 6818
1823 6896
1823 7138
1823 7152
1823 7304
1823 7339
1823 7353
1823 7473
1823 7830
1823 7893
1823 7953
1823 8138
1823 8707
1823 9027
1823 9305
1823 9432
1823 9501
1823 9695
1823 9719
1824 2856
1824 2946
1824 3015
1824 3439
1824 3455
1824 3541
1824 3552
1824 3616
1824 3804
1824 3896
1824 3973
1824 4240
1824 4384
1824 4416
1824 4456
1824 5479
1824 5523
1824 5526
1824 5550
1824 5602
1824 5856
1824 6403
1824 6725
1824 6967
1824 7349
1824 7765
1824 8042
1824 8048
1824 9014
1824 9271
1824 9959
1825 1898
1825 2675
1825 2753
1825 3109
1825 3749
1825 3795
1825 4361
1825 4787
1825 5354
1825 6289
1825 6731
1825 7711
1825 7716
1825 9544
1826 2672
1826 2829
1826 2984
1826 3075
1826 3225
1826 4177
1826 4258
1826 4333
1826 4682
1826 5022
1826 5042
1826 5229
1826 5633
1826 5910
1826 6255
1826 6719
1826 6947
1826 7135
1826 7619
1826 7902
1826 7988
1826 8122
1826 8621
1826 8860
1826 8871
1826 9195
1826 9841
1827 2429
1827 2871
1827 4914
1827 5895
1827 6580
1827 7041
1827 7090
1827 7799
1827 8701
1827 8865
1827 9414
1828 2328
1828 2439
1828 2514
1828 2799
1828 2833
1828 3227
1828 3263
1828 3415
1828 3539
1828 4541
1828 5050
1828 5163
1828 5719
1828 6367
1828 7004
1828 7196
1828 7370
1828 7418
1828 7814
1828 7844
1828 7879
1828 8108
1828 8358
1828 8592
1828 8695
1828 9215
1828 9504
1828 9945
1829 2378
1829 2551
1829 2685
1829 2930
1829 3091
1829 3778
1829 4313
1829 5207
1829 5489
1829 5719
1829 5855
1829 5977
1829 6024
1829 6108
1829 6282
1829 6310
1829 6947
1829 7002
1829 7088
1829 7096
1829 7128
1829 7220
1829 7449
1829 7578
1829 7764
1829 8711
1829 8765
1829 8895
1829 9074
1829 9231
1829 9277
1829 9678
1829 9833
1829 9885
1830 2476
1830 3086
1830 3558
1830 6079
1830 7740
1830 9143
1830 9412
1830 9485
1831 2391
1831 2546
1831 2768
1831 3409
1831 4300
1831 6004
1831 6318
1831 6764
1831 7021
1831 7230
1831 8167
1831 9145
1831 9522
1832 1953
1832 2271
1832 2357
1832 2371
1832 2391
1832 2592
1832 2599
1832 3098
1832 3246
1832 3500
1832 3616
1832 3800
1832 3948
1832 4038
1832 4164
1832 4560
1832 4637
1832 5007
1832 5413
1832 5706
1832 5721
1832 5783
1832 5869
1832 6472
1832 6578
1832 6963
1832 7112
1832 7199
1832 7275
1832 7568
1832 7641
1832 7994
1832 8346
1832 8382
1832 9158
1832 9558
1832 9663
1832 9944
1833 2048
1833 2208
1833 2307
1833 2941
1833 2994
1833 3017
1833 3613
1833 3720
1833 3727
1833 3925
1833 4090
1833 4328
1833 4394
1833 4590
1833 4621
1833 4686
1833 4902
1833 5142
1833 5154
1833 5195
1833 7545
1833 7969
1833 8056
1833 8075
1833 8185
1833 8424
1833 8459
1833 9031
1833 9294
1833 9459
1833 9503
1833 9756
1833 9760
1834 1866
1834 2853
1834 3032
1834 3125
1834 3391
1834 3448
1834 3589
1834 3693
1834 3811
1834 3825
1834 4055
1834 4513
1834 4538
1834 4955
1834 5220
1834 5283
1834 5446
1834 5751
1834 5878
1834 5897
1834 5899
1834 6060
1834 6485
1834 6491
1834 6726
1834 6806
1834 7266
1834 7399
1834 7515
1834 7565
1834 7827
1834 8196
1834 9303
1834 9902
1835 2256
1835 2585
1835 2613
1835 2655
1835 2806
1835 3423
1835 3913
1835 4078
1835 4282
1835 4427
1835 5134
1835 5487
1835 5501
1835 6251
1835 6605
1835 6819
1835 6857
1835 6991
1835 7217
1835 7328
1835 7807
1835 8596
1835 8608
1835 9033
1835 9631
1835 9734
1835 9964
1836 2011
1836 2373
1836 2490
1836 2946
1836 3083
1836 3349
1836 3458
1836 3835
1836 5600
1836 5813
1836 5826
1836 6331
1836 8225
1836 8898
1836 8990
1836 9013
1837 2483
1837 2849
1837 6978
1837 7341
1837 8816
1837 9136
1837 9313
1838 2014
1838 5545
1838 7489
1838 7981
1838 8386
1838 9490
1839 1899
1839 2612
1839 2773
1839 2942
1839 3174
1839 4227
1839 4278
1839 4319
1839 4381
1839 4481
1839 4609
1839 4638
1839 5076
1839 5174
1839 5533
1839 5564
1839 5737
1839 6297
1839 6342
1839 6570
1839 6804
1839 7141
1839 7441
1839 8068
1839 8176
1839 8182
1839 8202
1839 8268
1839 8497
1839 9664
1839 9685
1839 9707
1839 9929
1840 4812
1840 4958
1840 5523
1840 6727
1840 7021
1840 7100
1840 9153
1841 2031
1841 2253
1841 2376
1841 2428
1841 2514
1841 2898
1841 3101
1841 3586
1841 3727
1841 4132
1841 4272
1841 4706
1841 4809
1841 4840
1841 5226
1841 5385
1841 5682
1841 5851
1841 6425
1841 6632
1841 6654
1841 6736
1841 6807
1841 6874
1841 6879
1841 7188
1841 7286
1841 7880
1841 8097
1841 8362
1841 8394
1841 8693
1841 8836
1841 8903
1841 9357
1841 9697
1842 1911
1842 2970
1842 3191
1842 4836
1842 5333
1842 6496
1842 7317
1842 8004
1842 8281
1842 9240
1842 9244
1842 9681
1843 3083
1843 3732
1843 4702
1843 5193
1843 6152
1843 6160
1843 6268
1843 6543
1843 7302
1844 2501
1844 2902
1844 2912
1844 2940
1844 3631
1844 4109
1844 4306
1844 4659
1844 5289
1844 5553
1844 5706
1844 5873
1844 5947
1844 6031
1844 6244
1844 6461
1844 7092
1844 7135
1844 7165
1844 7361
1844 7489
1844 7499
1844 7603
1844 7763
1844 7911
1844 8108
1844 8315
1844 8431
1844 8806
1844 9080
1844 9307
1844 9538
1844 9748
1844 9982
1845 1926
1845 2120
1845 2479
1845 2600
1845 3194
1845 3370
1845 3499
1845 3818
1845 4250
1845 4913
1845 4921
1845 5829
1845 5945
1845 6784
1845 7422
1845 9192
1845 9361
1845 9614
1845 9707
1846 2150
1846 2963
1846 6026
1846 6225
1846 6556
1846 6967
1846 7168
1846 7959
1846 8338
1846 8434
1846 8770
1846 9976
1847 3308
1847 5400
1847 5606
1847 5875
1847 6139
1847 6289
1847 6934
1847 7265
1847 7607
1847 8501
1847 9217
1847 9885
1848 2465
1848 2973
1848 3755
1848 4397
1848 4607
1848 4867
1848 5206
1848 5730
1848 6482
1848 6625
1848 8214
1848 8593
1848 8781
1848 9450
1849 2876
1849 3217
1849 3342
1849 3818
1849 5264
1849 5274
1849 5664
1849 8802
1849 9057
1849 9162
1849 9552
1850 3585
1850 4498
1850 5312
1850 6189
1850 6412
1850 7575
1850 7631
1850 8177
1851 2689
1851 3655
1851 4502
1851 6465
1851 8072
1851 8499
1851 8625
1851 8892
1852 2005
1852 2223
1852 3768
1852 4652
1852 4675
1852 5311
1852 5558
1852 5614
1852 6026
1852 6444
1852 6642
1852 7154
1852 7544
1852 9977
1853 2046
1853 2053
1853 2441
1853 2466
1853 2512
1853 2692
1853 3354
1853 3418
1853 4623
1853 5820
1853 5868
1853 5980
1853 7247
1853 8051
1853 8851
1853 9173
1853 9395
1854 2023
1854 2364
1854 2688
1854 3343
1854 3715
1854 3882
1854 5216
1854 5528
1854 5711
1854 5769
1854 6096
1854 6420
1854 7398
1854 7848
1854 8305
1854 8372
1855 2182
1855 2398
1855 2489
1855 5756
1855 5985
1855 6658
1855 6781
1855 7402
1855 8187
1855 8799
1855 9389
1856 2367
1856 2369
1856 2430
1856 2782
1856 2877
1856 2917
1856 3085
1856 3995
1856 5170
1856 5302
1856 6107
1856 6158
1856 6163
1856 6615
1856 6687
1856 8006
1856 8420
1856 8806
1857 2315
1857 2555
1857 2743
1857 3929
1857 3998
1857 4004
1857 4285
1857 4352
1857 4781
1857 4845
1857 5640
1857 5895
1857 5927
1857 6092
1857 6438
1857 8288
1857 8575
1857 8927
1857 8988
1857 9517
1857 9939
1858 1925
1858 2598
1858 3283
1858 4710
1858 4715
1858 4767
1858 4804
1858 4832
1858 5291
1858 5418
1858 5671
1858 6389
1858 6593
1858 7168
1858 7514
1858 7602
1858 7608
1858 8451
1858 8457
1858 8854
1858 9393
1859 2074
1859 2620
1859 2891
1859 3295
1859 3324
1859 3773
1859 3982
1859 4313
1859 4638
1859 4671
1859 5167
1859 5828
1859 5852
1859 6001
1859 6978
1859 7470
1859 7667
1859 7706
1859 8012
1859 8687
1859 9092
1859 9198
1859 9461
1859 9568
1859 9646
1859 9986
1860 1897
1860 2486
1860 2886
1860 2951
1860 3439
1860 4636
1860 4899
1860 4989
1860 5331
1860 5385
1860 5694
1860 6837
1860 6960
1860 7326
1860 7909
1860 8052
1860 8331
1860 8888
1860 8891
1860 9904
1861 2622
1861 2659
1861 2699
1861 3057
1861 3951
1861 4312
1861 5440
1861 6883
1861 7375
1861 7665
1861 7832
1861 8103
1861 8222
1861 8372
1861 8524
1861 9937
1862 1990
1862 2669
1862 2687
1862 3370
1862 4594
1862 4875
1862 6949
1862 7169
1862 7289
1862 7429
1862 9366
1862 9444
1862 9652
1863 2093
1863 2297
1863 2475
1863 2842
1863 2883
1863 3717
1863 4150
1863 4751
1863 5242
1863 5387
1863 5917
1863 6065
1863 6158
1863 7122
1863 7257
1863 7328
1863 7840
1863 8099
1863 8794
1863 8917
1864 2573
1864 2743
1864 4409
1864 5403
1864 5864
1864 6595
1864 7972
1864 8188
1864 8474
1864 8543
1865 2632
1865 3191
1865 4946
1865 6195
1865 6593
1865 8146
1865 8442
1865 8516
1865 8943
1865 9042
1865 9455
1865 9635
1865 9939
1866 2853
1866 5283
1866 5583
1866 5687
1866 5751
1866 5878
1866 5899
1866 6726
1866 7775
1866 8368
1867 1993
1867 2002
1867 2619
1867 2771
1867 2919
1867 4553
1867 5691
1867 5700
1867 5929
1867 8602
1867 9068
1867 9304
1868 2890
1868 3199
1868 4383
1868 4422
1868 5659
1868 5970
1868 7484
1868 7627
1868 7661
1868 8701
1868 9275
1868 9376
1868 9464
1869 2979
1869 3425
1869 4870
1869 5619
1869 5885
1869 5959
1869 6233
1869 6499
1869 8958
1869 9533
1870 2418
1870 2696
1870 2709
1870 3045
1870 3493
1870 4509
1870 5082
1870 5432
1870 6128
1870 6643
1870 6771
1870 6888
1870 7017
1870 7743
1870 7862
1870 8158
1870 8603
1870 9128
1870 9520
1870 9901
1871 2019
1871 2246
1871 2439
1871 2732
1871 3110
1871 3338
1871 3364
1871 3403
1871 3637
1871 3851
1871 4226
1871 4428
1871 4554
1871 4710
1871 4873
1871 4879
1871 4948
1871 5133
1871 6385
1871 7055
1871 7062
1871 7197
1871 7213
1871 7434
1871 7826
1871 8174
1871 8777
1871 8922
1871 8952
1871 9257
1871 9306
1871 9488
1871 9637
1872 2260
1872 3195
1872 3293
1872 3324
1872 3449
1872 4236
1872 7434
1872 8558
1872 8617
1872 8895
1872 9252
1873 1926
1873 3179
1873 4626
1873 5241
1873 6036
1873 7092
1873 7695
1873 8355
1873 8906
1873 9048
1873 9098
1873 9410
1873 9572
1874 2649
1874 3814
1874 3898
1874 5502
1874 6714
1874 6724
1874 6742
1874 7741
1874 7928
1874 7990
1874 8031
1874 8609
1874 8649
1874 9473
1875 3162
1875 3744
1875 3812
1875 3935
1875 5015
1875 5199
1875 6625
1875 6738
1875 7118
1875 7774
1875 8188
1875 8302
1875 9500
1876 2373
1876 2732
1876 3354
1876 3423
1876 3431
1876 3570
1876 3642
1876 3925
1876 3948
1876 5443
1876 5687
1876 6216
1876 7401
1876 7651
1876 7890
1876 7957
1876 8497
1876 8606
1876 8614
1876 9348
1877 1957
1877 2384
1877 4603
1877 4953
1877 4974
1877 5322
1877 5860
1877 8379
1877 8412
1877 8553
1877 8736
1878 2099
1878 3192
1878 3615
1878 3861
1878 5744
1878 5962
1878 6158
1878 6600
1878 7267
1878 7526
1878 8126
1878 8181
1878 9017
1879 2581
1879 2970
1879 3570
1879 3680
1879 3736
1879 5087
1879 7796
1879 8149
1879 8759
1880 3091
1880 3274
1880 3418
1880 4026
1880 4764
1880 5749
1880 6226
1880 6632
1880 7087
1880 7144
1880 7596
1880 9320
1880 9950
1881 2376
1881 2506
1881 2603
1881 3496
1881 4290
1881 5493
1881 5993
1881 6376
1881 6438
1881 7232
1881 7803
1881 8196
1882 2415
1882 2783
1882 3114
1882 3300
1882 4830
1882 5933
1882 6154
1882 6320
1882 6818
1882 6826
1882 7549
1882 7610
1882 7652
1882 8166
1882 8198
1882 8622
1882 8761
1882 8887
1882 9251
1882 9457
1882 9523
1882 9526
1882 9698
1882 9983
1883 2148
1883 2602
1883 2853
1883 3087
1883 6622
1883 6790
1883 7089
1883 7107
1883 7550
1883 8288
1883 8647
1883 9255
1883 9384
1883 9497
1884 2531
1884 2814
1884 4551
1884 7354
1884 7394
1884 7806
1884 8929
1884 9078
1884 9211
1884 9414
1885 3725
1885 5391
1885 6205
1885 7131
1885 8809
1885 9484
1885 9667
1885 9901
1886 1901
1886 2022
1886 2748
1886 2843
1886 3236
1886 3481
1886 3560
1886 3652
1886 4223
1886 4240
1886 4337
1886 4962
1886 4991
1886 5305
1886 5411
1886 5671
1886 5873
1886 6429
1886 6482
1886 7263
1886 7479
1886 7484
1886 8389
1886 8521
1886 8653
1886 8705
1886 8712
1886 8956
1886 9037
1886 9145
1886 9164
1886 9406
1886 9734
1886 9914
1886 9998
1887 2970
1887 3873
1887 4045
1887 5069
1887 5505
1887 5682
1887 5824
1887 6175
1887 8531
1887 8758
1888 1936
1888 2085
1888 2225
1888 3913
1888 4674
1888 4945
1888 5578
1888 6084
1888 6192
1888 7086
1888 7516
1888 7833
1888 8688
1888 8852
1888 8933
1888 9407
1888 9422
1889 2290
1889 2997
1889 4273
1889 5291
1889 5668
1889 5881
1889 6641
1889 7662
1889 7799
1889 8471
1889 9364
1890 3029
1890 3138
1890 3409
1890 3782
1890 3908
1890 3949
1890 5938
1890 5964
1890 6556
1890 6716
1890 7291
1890 7468
1890 7949
1890 8273
1890 9680
1891 2518
1891 4129
1891 4881
1891 5122
1891 6319
1891 6804
1891 7421
1891 8423
1891 8912
1891 9428
1892 2418
1892 2786
1892 3187
1892 3461
1892 3656
1892 4221
1892 4296
1892 4990
1892 5155
1892 6368
1892 7709
1892 7895
1892 7954
1892 8139
1892 8191
1892 8725
1892 8885
1892 9072
1892 9129
1892 9302
1893 1933
1893 2051
1893 3955
1893 5290
1893 5483
1893 5580
1893 6968
1893 7040
1893 7063
1893 7175
1893 7198
1893 9003
1893 9534
1894 2364
1894 2538
1894 3135
1894 4272
1894 4444
1894 4870
1894 6036
1894 6838
1894 6902
1894 7821
1894 8255
1894 8625
1894 8651
1894 8749
1894 8870
1895 2116
1895 3584
1895 5247
1895 5470
1895 6047
1895 6758
1895 7167
1895 7980
1895 8541
1895 8864
1895 9768
1896 2274
1896 2347
1896 2915
1896 2982
1896 3284
1896 5776
1896 6312
1896 7210
1896 8075
1896 8828
1896 9026
1896 9735
1897 2255
1897 2636
1897 2886
1897 3737
1897 5546
1897 5694
1897 6358
1897 6795
1897 6960
1897 7048
1897 7326
1897 7840
1897 8619
1897 8936
1897 9904
1898 2186
1898 2462
1898 3223
1898 3535
1898 4041
1898 7561
1898 8147
1898 9229
1898 9360
1899 2068
1899 3324
1899 3705
1899 3722
1899 4237
1899 6581
1899 6962
1899 7372
1899 7460
1899 7964
1899 8225
1899 8631
1899 9724
1900 2730
1900 2970
1900 3874
1900 4979
1900 5222
1900 6468
1900 6699
1900 7091
1900 7833
1900 7839
1900 8469
1900 9689
1901 1913
1901 2198
1901 2231
1901 2777
1901 4153
1901 4500
1901 4829
1901 5448
1901 6577
1901 7254
1901 7365
1902 2218
1902 2248
1902 2549
1902 2657
1902 2862
1902 2930
1902 3068
1902 3859
1902 4294
1902 4450
1902 4584
1902 5410
1902 5413
1902 5436
1902 5479
1902 6321
1902 6591
1902 6888
1902 6919
1902 7452
1902 7596
1902 7743
1902 7917
1902 8360
1902 9042
1902 9070
1902 9220
1902 9389
1902 9655
1902 9956
1903 3478
1903 4051
1903 6255
1903 6759
1903 7866
1903 8224
1903 8709
1903 9750
1904 2175
1904 2524
1904 2829
1904 2990
1904 3041
1904 3738
1904 4223
1904 5201
1904 6208
1904 7328
1905 2213
1905 3326
1905 3584
1905 3597
1905 3878
1905 4161
1905 4420
1905 4807
1905 6277
1905 6540
1905 6985
1905 7287
1905 8395
1905 8619
1905 8683
1905 8729
1905 8797
1905 8816
1905 9281
1906 2261
1906 2544
1906 2702
1906 3215
1906 3794
1906 4242
1906 7023
1906 7270
1906 8936
1907 2979
1907 3062
1907 3139
1907 4275
1907 4967
1907 6761
1907 6909
1907 8422
1907 8639
1907 9233
1907 9903
1908 2241
1908 3718
1908 4242
1908 6150
1908 7082
1908 7281
1908 7483
1908 8081
1909 2033
1909 3169
1909 4210
1909 4336
1909 4408
1909 4573
1909 4598
1909 5873
1909 6659
1909 6972
1909 8388
1909 9097
1909 9177
1909 9691
1910 2007
1910 2638
1910 3870
1910 4063
1910 4800
1910 5006
1910 5353
1910 5886
1910 6729
1910 6863
1910 8057
1910 9221
1910 9353
1910 9506
1910 9532
1911 2203
1911 2908
1911 3205
1911 4026
1911 5251
1911 6509
1911 6541
1911 9096
1911 9263
1912 6763
1912 7015
1912 8343
1912 8401
1912 8655
1912 8834
1912 9035
1913 2584
1913 2777
1913 3006
1913 4695
1913 4845
1913 6460
1913 8057
1913 9351
1913 9602
1914 3034
1914 3122
1914 3546
1914 4200
1914 6190
1914 8458
1914 9292
1915 2030
1915 2236
1915 5832
1915 6005
1915 6402
1915 6434
1916 1929
1916 2383
1916 4837
1916 5101
1916 5573
1916 8859
1916 8890
1916 8916
1916 9974
1916 9979
1917 4405
1917 4983
1917 4984
1917 5090
1917 5420
1917 5817
1917 6182
1917 6220
1917 6465
1917 6466
1917 6563
1917 6783
1917 6878
1917 7784
1917 8381
1917 8511
1918 2460
1918 2563
1918 3333
1918 3488
1918 3978
1918 4442
1918 4857
1918 4892
1918 6641
1918 7576
1919 2143
1919 2908
1919 2969
1919 4479
1919 4689
1919 4760
1919 4819
1919 5165
1919 5399
1919 5577
1919 5962
1919 6312
1919 6527
1919 6544
1919 7081
1919 7786
1919 8108
1919 8980
1919 9231
1920 1935
1920 2192
1920 2267
1920 2396
1920 2593
1920 2966
1920 3150
1920 3243
1920 3256
1920 3908
1920 3980
1920 3982
1920 4380
1920 4661
1920 5689
1920 6133
1920 6515
1920 6565
1920 6758
1920 6891
1920 8192
1920 8231
1920 8669
1920 9347
1921 2963
1921 3291
1921 3571
1921 4582
1921 6181
1921 6316
1921 6675
1921 6905
1921 7336
1921 7358
1921 7773
1921 8184
1921 8675
1921 9307
1921 9509
1922 2552
1922 2622
1922 2925
1922 2986
1922 3502
1922 3533
1922 4149
1922 4426
1922 5082
1922 5285
1922 5654
1922 5678
1922 5886
1922 8114
1923 4566
1923 4593
1923 4749
1923 5692
1923 5865
1923 7601
1923 8428
1923 8606
1923 8982
1923 9065
1924 2798
1924 2890
1924 3063
1924 4424
1924 5071
1924 5399
1924 5895
1924 5988
1924 7502
1924 8223
1924 9597
1924 9656
1925 2805
1925 2934
1925 2951
1925 4219
1925 4619
1925 4993
1925 5329
1925 6894
1925 6994
1925 8075
1925 8444
1925 8746
1926 2318
1926 2376
1926 2493
1926 2573
1926 2718
1926 4318
1926 4441
1926 4518
1926 4555
1926 4664
1926 5281
1926 6088
1926 6134
1926 6744
1926 6937
1926 8041
1926 8185
1926 8336
1926 8560
1926 8917
1926 9374
1926 9650
1927 2345
1927 3069
1927 3102
1927 3832
1927 5186
1927 5195
1927 5761
1927 5887
1927 6181
1927 7035
1927 7064
1927 7310
1927 8051
1927 8094
1927 8851
1927 9198
1927 9244
1927 9419
1927 9832
1927 9881
1928 2970
1928 5008
1928 5098
1928 5594
1928 5646
1928 5745
1928 6312
1928 7402
1928 7531
1928 7585
1928 7639
1928 8820
1928 9312
1929 2197
1929 2387
1929 2884
1929 3528
1929 3728
1929 3738
1929 4037
1929 4580
1929 4711
1929 4836
1929 4837
1929 5042
1929 5280
1929 6198
1929 7509
1929 8116
1929 8257
1929 8744
1929 8916
1929 9462
1929 9631
1929 9891
1930 2124
1930 3876
1930 4293
1930 4630
1930 4836
1930 4917
1930 6196
1930 6554
1930 6792
1930 7390
1930 7454
1930 7540
1930 7749
1931 2619
1931 2919
1931 3462
1931 3512
1931 3726
1931 4083
1931 4852
1931 5477
1931 5662
1931 5691
1931 8362
1931 9942
1932 2125
1932 3465
1932 5486
1932 6393
1932 6526
1932 6637
1932 6898
1932 7390
1932 7832
1932 8096
1932 8274
1933 2051
1933 3404
1933 4813
1933 5595
1933 5763
1933 8267
1933 8446
1933 8780
1933 8822
1933 9386
1933 9782
1933 9795
1934 2145
1934 2408
1934 2492
1934 3014
1934 3582
1934 4781
1934 7250
1934 8680
1934 8959
1934 9969
1935 2419
1935 2881
1935 3356
1935 3657
1935 3750
1935 4281
1935 4338
1935 4350
1935 4374
1935 4515
1935 4587
1935 4705
1935 5425
1935 5745
1935 5753
1935 5932
1935 6041
1935 6215
1935 6916
1935 7665
1935 7701
1935 8304
1935 8432
1935 8672
1935 8681
1935 9093
1935 9246
1935 9314
1935 9397
1936 1971
1936 2328
1936 2500
1936 2765
1936 2896
1936 2937
1936 2998
1936 3031
1936 3571
1936 4203
1936 4311
1936 4674
1936 4785
1936 4945
1936 5067
1936 5244
1936 5756
1936 6072
1936 6343
1936 6460
1936 6804
1936 7275
1936 7481
1936 7623
1936 7833
1936 8004
1936 8138
1936 8293
1936 8386
1936 8576
1936 8688
1936 8933
1936 9011
1936 9089
1936 9332
1936 9422
1936 9488
1936 9583
1936 9712
1937 3948
1937 5001
1937 6086
1937 7246
1937 7514
1937 7663
1937 9542
1937 9879
1938 2215
1938 2674
1938 3129
1938 3200
1938 3248
1938 3540
1938 3664
1938 3682
1938 4390
1938 4544
1938 4928
1938 4975
1938 5035
1938 5393
1938 5937
1938 5943
1938 6287
1938 6378
1938 6465
1938 7129
1938 7198
1938 7233
1938 8113
1938 8180
1938 8314
1938 8481
1938 8515
1938 8729
1938 8944
1938 9278
1938 9344
1938 9614
1938 9658
1938 9715
1938 9910
1939 2516
1939 2716
1939 3246
1939 3584
1939 3718
1939 3743
1939 4126
1939 4414
1939 5584
1939 5936
1939 8472
1939 8649
1940 2183
1940 3299
1940 6272
1940 6654
1940 6745
1940 6837
1940 8914
1940 9864
1940 9917
1941 2470
1941 3058
1941 3170
1941 3675
1941 4661
1941 5438
1941 5923
1941 6450
1941 6859
1941 7321
1941 8104
1941 8911
1941 9240
1942 1946
1942 4294
1942 4486
1942 4716
1942 5405
1942 5690
1942 5918
1942 6225
1942 6281
1942 6938
1942 7191
1942 7599
1942 7624
1942 7973
1942 8249
1943 2432
1943 2751
1943 2798
1943 2882
1943 2936
1943 3072
1943 3189
1943 3347
1943 3416
1943 3540
1943 3775
1943 3809
1943 3819
1943 4458
1943 4710
1943 5206
1943 5430
1943 5709
1943 6005
1943 6285
1943 6313
1943 6393
1943 6485
1943 7672
1943 7804
1943 8057
1943 8135
1943 8168
1943 8457
1943 9124
1943 9439
1943 9808
1944 2083
1944 2199
1944 2380
1944 2962
1944 4921
1944 5876
1944 6379
1944 7255
1944 7291
1944 8069
1944 8882
1944 9210
1944 9669
1945 2325
1945 2775
1945 3162
1945 3257
1945 4635
1945 5180
1945 6115
1945 6621
1945 7275
1945 7624
1945 8361
1945 8421
1945 9124
1945 9378
1945 9882
1946 2140
1946 2313
1946 2558
1946 2936
1946 3139
1946 3168
1946 4018
1946 4491
1946 4555
1946 5254
1946 5433
1946 5616
1946 5732
1946 5823
1946 6028
1946 6128
1946 6485
1946 7037
1946 7125
1946 7291
1946 7426
1946 7818
1946 8299
1946 8580
1946 8711
1946 8767
1946 8800
1946 8882
1946 8928
1946 9018
1946 9497
1947 2104
1947 2258
1947 2466
1947 2493
1947 5048
1947 5562
1947 7045
1947 7407
1947 7556
1947 8431
1947 9630
1948 2286
1948 2642
1948 3161
1948 3240
1948 3250
1948 4989
1948 5198
1948 5218
1948 5614
1948 5951
1948 6072
1948 6103
1948 6209
1948 6424
1948 6433
1948 6476
1948 6843
1948 6878
1948 7440
1948 7512
1948 7569
1948 7817
1948 9297
1948 9642
1948 9931
1949 2216
1949 2443
1949 2704
1949 2946
1949 3319
1949 3342
1949 3431
1949 3552
1949 3603
1949 3612
1949 4220
1949 4627
1949 4859
1949 5279
1949 5483
1949 6053
1949 6151
1949 6490
1949 6850
1949 6909
1949 7105
1949 7588
1949 7842
1949 8046
1949 8074
1949 8449
1949 8585
1949 8641
1949 8662
1949 8908
1949 9491
1949 9567
1949 9781
1950 2088
1950 2863
1950 3488
1950 4103
1950 4806
1950 5765
1950 5805
1950 6410
1950 6591
1950 6919
1950 8195
1950 9457
1950 9838
1951 2271
1951 3020
1951 3610
1951 4744
1951 4985
1951 5607
1951 6387
1951 6514
1951 6607
1951 6868
1951 6885
1951 6986
1951 7108
1951 7537
1951 8077
1951 8228
1951 8392
1951 9177
1951 9904
1952 1961
1952 2298
1952 3260
1952 4159
1952 6493
1952 7547
1952 7697
1952 7968
1952 9416
1953 2271
1953 3616
1953 3765
1953 3800
1953 4677
1953 5706
1953 5752
1953 6764
1953 8346
1953 9351
1953 9434
1953 9749
1954 2041
1954 2954
1954 3794
1954 4447
1954 4752
1954 5089
1954 5246
1954 5510
1954 5691
1954 5763
1954 5810
1954 6893
1954 7460
1954 7565
1954 8417
1954 8664
1954 9013
1954 9084
1954 9844
1955 2170
1955 2455
1955 5173
1955 5237
1955 5247
1955 5481
1955 6019
1955 7256
1955 7866
1955 7882
1955 8236
1955 8750
1955 9303
1955 9923
1956 2509
1956 2808
1956 3452
1956 3597
1956 5093
1956 5487
1956 7168
1956 8228
1956 8414
1956 9444
1956 9533
1957 2081
1957 3606
1957 3978
1957 4301
1957 4347
1957 4507
1957 7071
1957 7418
1957 7693
1957 8379
1957 8553
1957 8843
1957 9237
1957 9857
1957 9976
1958 2079
1958 2254
1958 2800
1958 3555
1958 5406
1958 5712
1958 6614
1958 7466
1958 7760
1958 8066
1958 8222
1958 9721
1959 2011
1959 2459
1959 3073
1959 3675
1959 3845
1959 4161
1959 4559
1959 5681
1959 6744
1959 7525
1959 8172
1959 8238
1959 8764
1959 9346
1960 2507
1960 2903
1960 3758
1960 4218
1960 5318
1960 5705
1960 5712
1960 7180
1960 7774
1960 7860
1960 7880
1960 8940
1961 2829
1961 3935
1961 5821
1961 6504
1961 7097
1961 7540
1961 8002
1961 9683
1962 2383
1962 3189
1962 3544
1962 4826
1962 5139
1962 5220
1962 7455
1962 8428
1962 9396
1962 9974
1963 2482
1963 4373
1963 5574
1963 5634
1963 6288
1963 6601
1963 6740
1963 6787
1963 7742
1963 7752
1963 8057
1963 8483
1963 8569
1963 9256
1964 2616
1964 2995
1964 3599
1964 4263
1964 4543
1964 4783
1964 4819
1964 5903
1964 7050
1964 7212
1964 7595
1964 8770
1964 8786
1965 2241
1965 4309
1965 4465
1965 4562
1965 5270
1965 5349
1965 6890
1965 7082
1965 7371
1966 2328
1966 3574
1966 4200
1966 5737
1966 6127
1966 6129
1966 6286
1966 6695
1966 7104
1966 7641
1966 8093
1966 8496
1966 8972
1966 8982
1966 9134
1966 9349
1967 2024
1967 2096
1967 2429
1967 2512
1967 2971
1967 3090
1967 3486
1967 3958
1967 4523
1967 4931
1967 4983
1967 6251
1967 6872
1967 7087
1967 7216
1967 8132
1967 8941
1967 9449
1967 9515
1967 9744
1967 9869
1968 2544
1968 2889
1968 2957
1968 3498
1968 4294
1968 4580
1968 9423
1968 9814
1969 2745
1969 5973
1969 6393
1969 6810
1969 6878
1969 8536
1969 8866
1969 8960
1969 9721
1970 2311
1970 2916
1970 2929
1970 3652
1970 5374
1970 5704
1970 5991
1970 6543
1970 6975
1970 7235
1970 7297
1970 9810
1970 9919
1971 2165
1971 2328
1971 2499
1971 2523
1971 2680
1971 2765
1971 3732
1971 4568
1971 4598
1971 4785
1971 5002
1971 5063
1971 5219
1971 5287
1971 5468
1971 5620
1971 5658
1971 6144
1971 6166
1971 6343
1971 6383
1971 6718
1971 6804
1971 7005
1971 7042
1971 7659
1971 7695
1971 7828
1971 7833
1971 8517
1971 8576
1971 8933
1971 9101
1971 9146
1971 9332
1971 9422
1971 9712
1972 2305
1972 3236
1972 3780
1972 4671
1972 5599
1972 6771
1972 7632
1972 7882
1972 8298
1972 9433
1973 2752
1973 2808
1973 3540
1973 3776
1973 4282
1973 6503
1973 6783
1973 6916
1973 7262
1973 7308
1973 8233
1973 8528
1973 9065
1973 9390
1974 2757
1974 2758
1974 2973
1974 3477
1974 3589
1974 3818
1974 3840
1974 4331
1974 4438
1974 4606
1974 4867
1974 5680
1974 5953
1974 6079
1974 7453
1974 8300
1974 9350
1974 9533
1974 9673
1974 9706
1974 9825
1975 2006
1975 2235
1975 3085
1975 3718
1975 4039
1975 4792
1975 6002
1975 7383
1975 7630
1975 7964
1975 8441
1975 8630
1975 9535
1975 9679
1976 2185
1976 2711
1976 3013
1976 3719
1976 4907
1976 4942
1976 4946
1976 5015
1976 5366
1976 6357
1976 6928
1976 7121
1976 7763
1976 7833
1976 7852
1976 8298
1976 8714
1976 8788
1976 9239
1976 9289
1976 9341
1976 9467
1976 9767
1977 2575
1977 2816
1977 3091
1977 3169
1977 3357
1977 3454
1977 3844
1977 4073
1977 4527
1977 4533
1977 5557
1977 5929
1977 5944
1977 6041
1977 6077
1977 6146
1977 6648
1977 6840
1977 7581
1977 7618
1977 7717
1977 7820
1977 7827
1977 8187
1977 8949
1977 9301
1977 9316
1977 9873
1978 3969
1978 4164
1978 4973
1978 5159
1978 5170
1978 6246
1978 6732
1978 7473
1978 7589
1978 8118
1978 9208
1978 9360
1979 2115
1979 2732
1979 2736
1979 2947
1979 2979
1979 3085
1979 3245
1979 3873
1979 4315
1979 4378
1979 5242
1979 5496
1979 6858
1979 9086
1979 9276
1980 2413
1980 3038
1980 3571
1980 3588
1980 3615
1980 4167
1980 4890
1980 5040
1980 7673
1980 8479
1980 8638
1980 9415
1980 9501
1980 9739
1981 2372
1981 2838
1981 4056
1981 4116
1981 4958
1981 6401
1981 6640
1981 6697
1981 8289
1981 8935
1981 9141
1981 9365
1981 9878
1982 2071
1982 3456
1982 4260
1982 4760
1982 4837
1982 5344
1982 6313
1982 7091
1982 7168
1982 7703
1982 9315
1982 9448
1983 2363
1983 2386
1983 4246
1983 4429
1983 4887
1983 5340
1983 5346
1983 6129
1983 6891
1983 7453
1983 7742
1983 7873
1983 9316
1983 9432
1984 4030
1984 4457
1984 4998
1984 5280
1984 5531
1984 5850
1984 6397
1984 6555
1984 7654
1984 8503
1984 8567
1984 9821
1985 3068
1985 3613
1985 4734
1985 4926
1985 5576
1985 5694
1985 5989
1985 5996
1985 6215
1985 6279
1985 6723
1985 7227
1985 7297
1985 7707
1985 8518
1985 8554
1985 9228
1986 2347
1986 2628
1986 2911
1986 3715
1986 6181
1986 6911
1986 7405
1986 8249
1986 8646
1986 8830
1986 8886
1986 8982
1986 9263
1987 4211
1987 5007
1987 5162
1987 5546
1987 5923
1987 6222
1987 6430
1987 7351
1987 8309
1987 8629
1987 8639
1987 8779
1988 2177
1988 4054
1988 4577
1988 4798
1988 4842
1988 5452
1988 6243
1988 6302
1988 6397
1988 6813
1988 8438
1988 9482
1988 9487
1988 9768
1989 2013
1989 2226
1989 2703
1989 3083
1989 3249
1989 3529
1989 4635
1989 4685
1989 4933
1989 5535
1989 6069
1989 6227
1989 6628
1989 6706
1989 7279
1989 7368
1989 7553
1989 7819
1989 7985
1989 8898
1989 8936
1989 9267
1990 2303
1990 2655
1990 3471
1990 6949
1990 7169
1990 7383
1990 7996
1990 8518
1990 9295
1990 9366
1990 9731
1991 4134
1991 4615
1991 6014
1991 6050
1991 7540
1991 7750
1991 8610
1991 9645
1991 9693
1991 9728
1992 2466
1992 3022
1992 3200
1992 4013
1992 4147
1992 6816
1992 7361
1992 7400
1992 8286
1992 8297
1992 8342
1992 9058
1992 9935
1993 2538
1993 2601
1993 2773
1993 4053
1993 4333
1993 4351
1993 4425
1993 4726
1993 4897
1993 5374
1993 5448
1993 6289
1993 6379
1993 6560
1993 6972
1993 7467
1993 7653
1993 7982
1993 8318
1993 8871
1993 9935
1994 2002
1994 2157
1994 2296
1994 2885
1994 3231
1994 3952
1994 4207
1994 4411
1994 4813
1994 6305
1994 6341
1994 6342
1994 6432
1994 6673
1994 6886
1994 7806
1994 8897
1994 9279
1994 9380
1994 9645
1994 9702
1995 2642
1995 4324
1995 5909
1995 6486
1995 7341
1995 7778
1996 3318
1996 3395
1996 3958
1996 4166
1996 4557
1996 5015
1996 5468
1996 5851
1996 7093
1996 8022
1996 9352
1996 9646
1996 9719
1997 2309
1997 2388
1997 2490
1997 2911
1997 3272
1997 3278
1997 3366
1997 3629
1997 3969
1997 4721
1997 4982
1997 5362
1997 6041
1997 6252
1997 7954
1997 8484
1997 8506
1997 9055
1997 9408
1997 9502
1998 2512
1998 2584
1998 3348
1998 4867
1998 5022
1998 7195
1998 8695
1998 9748
1999 2624
1999 3559
1999 3594
1999 4133
1999 4541
1999 4683
1999 5885
1999 6119
1999 6911
1999 7059
1999 8106
1999 8312
1999 9782
2000 2212
2000 2719
2000 3823
2000 4026
2000 4272
2000 6027
2000 6157
2000 7382
2001 2316
2001 2655
2001 4719
2001 5298
2001 5463
2001 5523
2001 6177
2001 6809
2001 7545
2001 8011
2001 8082
2001 8657
2001 9815
2002 2634
2002 3719
2002 5404
2002 6685
2002 7745
2002 8288
2002 8856
2002 9318
2002 9533
2003 2032
2003 2079
2003 2125
2003 2299
2003 3002
2003 3584
2003 4320
2003 6198
2003 6364
2003 8218
2003 9726
2004 2759
2004 2953
2004 3439
2004 3560
2004 4699
2004 5486
2004 5608
2004 5645
2004 5780
2004 6726
2004 7867
2004 8972
2005 2203
2005 2360
2005 2850
2005 3253
2005 3372
2005 3435
2005 3484
2005 3668
2005 3687
2005 3820
2005 4099
2005 4282
2005 4461
2005 4694
2005 4992
2005 5017
2005 5242
2005 5848
2005 6517
2005 6833
2005 7077
2005 7443
2005 7843
2005 8002
2005 8019
2005 8107
2005 8108
2005 8131
2005 8257
2005 8271
2005 8292
2005 8907
2005 9158
2005 9169
2005 9632
2006 2018
2006 2616
2006 2660
2006 2725
2006 3562
2006 3746
2006 4039
2006 4580
2006 4686
2006 4818
2006 5070
2006 5850
2006 6002
2006 6337
2006 6357
2006 6663
2006 7228
2006 7383
2006 7588
2006 7749
2006 8619
2006 8630
2006 8652
2006 8673
2006 9535
2006 9813
2007 2139
2007 2491
2007 2588
2007 2739
2007 2750
2007 3213
2007 3589
2007 3697
2007 3735
2007 3890
2007 4294
2007 5141
2007 5307
2007 5400
2007 5576
2007 5645
2007 5646
2007 6063
2007 6251
2007 6500
2007 6576
2007 6800
2007 7286
2007 7440
2007 9074
2007 9290
2007 9427
2008 2461
2008 2786
2008 3698
2008 6241
2008 6441
2008 6511
2008 6515
2008 8073
2008 9428
2009 5556
2009 6083
2009 6421
2009 6648
2009 7442
2009 7641
2009 8910
2009 9445
2010 2310
2010 2916
2010 3890
2010 4454
2010 4479
2010 5171
2010 5315
2010 6492
2010 7005
2010 7359
2010 7729
2010 8918
2010 9447
2011 2165
2011 2246
2011 2325
2011 3075
2011 3357
2011 3392
2011 3453
2011 3651
2011 3751
2011 3777
2011 3954
2011 4007
2011 4464
2011 4996
2011 5061
2011 5123
2011 5339
2011 5755
2011 5944
2011 5957
2011 6101
2011 6198
2011 6598
2011 6909
2011 7117
2011 7404
2011 7764
2011 7959
2011 8031
2011 8073
2011 8535
2011 9059
2011 9450
2012 2323
2012 3001
2012 3289
2012 3369
2012 3629
2012 3646
2012 3695
2012 4357
2012 4557
2012 4710
2012 4894
2012 5249
2012 5704
2012 5913
2012 5935
2012 6185
2012 6295
2012 6404
2012 6427
2012 7879
2012 8004
2012 8196
2012 8271
2012 8486
2012 8758
2012 8881
2012 8910
2012 9064
2012 9444
2012 9644
2012 9922
2013 2751
2013 2953
2013 3608
2013 3674
2013 3693
2013 4395
2013 4506
2013 5907
2013 5949
2013 6418
2013 7055
2013 7273
2013 7448
2013 7662
2013 8337
2014 2304
2014 2774
2014 3502
2014 4273
2014 4489
2014 5194
2014 5225
2014 7489
2014 7915
2014 7981
2014 8232
2014 8696
2014 9490
2014 9804
2015 3176
2015 3711
2015 4958
2015 5088
2015 5706
2015 5739
2015 5837
2015 5854
2015 5925
2015 6154
2015 6188
2015 7610
2015 7835
2015 8041
2015 8251
2015 9581
2015 9778
2016 2115
2016 3463
2016 3555
2016 4904
2016 5476
2016 5749
2016 5817
2016 6255
2016 7689
2016 8979
2016 9717
2016 9905
2017 2599
2017 2771
2017 3463
2017 6423
2017 6619
2017 8407
2017 9152
2017 9153
2017 9739
2018 2033
2018 2788
2018 2944
2018 3599
2018 5724
2018 5823
2018 5982
2018 6029
2018 6833
2018 7493
2018 7840
2018 9180
2018 9208
2019 2384
2019 2616
2019 3321
2019 4320
2019 4600
2019 4653
2019 6364
2019 6418
2019 6578
2019 7171
2019 8218
2019 8404
2019 8449
2019 8973
2019 9654
2020 2040
2020 2917
2020 3608
2020 5962
2020 6554
2020 6628
2020 7104
2020 7620
2020 7721
2020 8127
2020 8192
2020 8243
2020 9947
2021 2341
2021 2386
2021 2746
2021 2778
2021 3731
2021 3733
2021 4071
2021 4144
2021 4665
2021 4782
2021 4846
2021 5450
2021 5486
2021 5568
2021 6094
2021 6178
2021 6290
2021 8001
2021 8152
2021 8698
2021 8742
2021 9107
2021 9517
2022 3994
2022 6031
2022 7178
2022 7704
2022 8300
2022 9544
2022 9583
2022 9923
2023 3462
2023 3976
2023 4707
2023 5332
2023 5824
2023 5996
2023 6038
2023 6200
2023 6483
2023 6585
2023 7642
2023 8768
2023 9182
2023 9520
2024 2281
2024 2429
2024 3333
2024 3851
2024 4169
2024 4240
2024 6096
2024 6679
2024 6769
2024 7363
2024 7468
2024 7570
2024 8132
2024 8539
2024 8941
2024 9088
2024 9274
2024 9730
2024 9733
2025 2149
2025 2352
2025 2784
2025 3058
2025 3062
2025 3086
2025 3315
2025 3616
2025 3768
2025 4051
2025 4176
2025 4361
2025 4423
2025 4463
2025 4908
2025 5299
2025 5505
2025 5682
2025 5954
2025 6068
2025 6190
2025 6565
2025 6910
2025 7037
2025 7383
2025 7940
2025 8066
2025 8578
2025 8954
2025 9289
2025 9446
2025 9877
2026 4400
2026 5757
2026 5777
2026 6534
2026 8390
2026 9010
2026 9029
2026 9094
2026 9704
2026 9854
2027 2500
2027 2545
2027 2780
2027 2797
2027 3333
2027 3697
2027 4063
2027 4258
2027 4287
2027 4806
2027 4824
2027 5012
2027 5425
2027 5787
2027 5830
2027 5839
2027 6039
2027 6270
2027 7217
2027 7294
2027 7600
2027 7682
2027 8137
2027 8355
2027 8950
2027 9102
2027 9103
2027 9262
2027 9406
2027 9494
2027 9513
2027 9517
2027 9792
2028 2366
2028 5052
2028 5082
2028 5492
2028 5647
2028 6134
2028 7797
2028 8542
2028 9728
2028 9840
2028 9854
2029 3754
2029 3908
2029 3947
2029 4134
2029 4345
2029 4405
2029 4868
2029 5269
2029 6755
2029 7679
2029 8010
2029 8671
2029 8720
2029 9876
2030 2084
2030 2236
2030 2312
2030 2868
2030 3661
2030 4212
2030 5471
2030 5607
2030 6005
2030 6402
2031 2100
2031 3044
2031 3771
2031 4008
2031 5996
2031 6005
2031 8169
2031 8331
2031 8880
2031 8881
2031 9839
2032 2391
2032 2768
2032 3701
2032 4300
2032 4596
2032 6764
2032 7021
2032 7081
2032 8287
2032 8677
2032 9229
2033 2138
2033 2336
2033 2442
2033 3080
2033 3465
2033 4552
2033 4741
2033 4812
2033 5030
2033 5077
2033 5388
2033 5715
2033 5739
2033 5808
2033 6924
2033 7160
2033 7516
2033 7955
2033 8030
2033 8482
2033 9289
2033 9490
2033 9540
2033 9694
2033 9717
2033 9871
2034 2681
2034 2691
2034 2941
2034 2953
2034 3106
2034 3190
2034 3717
2034 5158
2034 5190
2034 5198
2034 6185
2034 6378
2034 6707
2034 6878
2034 6964
2034 7574
2034 8123
2034 8916
2034 9235
2034 9338
2034 9619
2034 9760
2034 9831
2034 9976
2035 2743
2035 4337
2035 4594
2035 5172
2035 5973
2035 8119
2036 3687
2036 3966
2036 4104
2036 4333
2036 4354
2036 4403
2036 4586
2036 5028
2036 5259
2036 5269
2036 5356
2036 5926
2036 6652
2036 6711
2036 6835
2036 9060
2036 9313
2036 9861
2037 2041
2037 2937
2037 3135
2037 3740
2037 4007
2037 4608
2037 5370
2037 5595
2037 6393
2037 6704
2037 6958
2037 9396
2037 9438
2038 2747
2038 2893
2038 3782
2038 4497
2038 5319
2038 5603
2038 6216
2038 6338
2038 6846
2038 6990
2038 7143
2038 8501
2038 8956
2039 3915
2039 4625
2039 4818
2039 5811
2039 6770
2039 6885
2039 6942
2039 7077
2039 7722
2039 9185
2039 9434
2039 9562
2040 2755
2040 3066
2040 3790
2040 3917
2040 3953
2040 3960
2040 5290
2040 5302
2040 5677
2040 6412
2040 6455
2040 7046
2040 7721
2040 7980
2040 8192
2040 8446
2040 9358
2041 2112
2041 2343
2041 2796
2041 3089
2041 3128
2041 3949
2041 3971
2041 4265
2041 4705
2041 5373
2041 5648
2041 6016
2041 6260
2041 6789
2041 6826
2041 7045
2041 7174
2041 7296
2041 7459
2041 7566
2041 7898
2041 8811
2041 9210
2042 2393
2042 4187
2042 4457
2042 4619
2042 6441
2042 7473
2042 7563
2042 7597
2042 7682
2042 8453
2042 9335
2043 2045
2043 2303
2043 3181
2043 3356
2043 4587
2043 5007
2043 5723
2043 6502
2043 6531
2043 6848
2043 7413
2043 7888
2043 7913
2043 7999
2043 8395
2043 9780
2044 2626
2044 2888
2044 3274
2044 3661
2044 4405
2044 5050
2044 6006
2044 6492
2044 6801
2044 6937
2044 7217
2044 7259
2044 7766
2044 8318
2044 8573
2044 8946
2044 9111
2044 9912
2045 4026
2045 4843
2045 4889
2045 5764
2045 5803
2045 5947
2045 6001
2045 6128
2045 6149
2045 7443
2045 8089
2045 8971
2046 2466
2046 2692
2046 2727
2046 3751
2046 5820
2046 5980
2046 6637
2047 2746
2047 2798
2047 3308
2047 3367
2047 3569
2047 4302
2047 5179
2047 6191
2047 7087
2047 7115
2047 7490
2047 7502
2047 7663
2047 7884
2047 8640
2047 8823
2047 8940
2047 9007
2047 9115
2047 9478
2048 2963
2048 3720
2048 3727
2048 3925
2048 4781
2048 5700
2048 8185
2048 8465
2048 9031
2048 9280
2048 9756
2049 2156
2049 2534
2049 2646
2049 3040
2049 3240
2049 3336
2049 3403
2049 3779
2049 3835
2049 3964
2049 4085
2049 4299
2049 4878
2049 4987
2049 5207
2049 5666
2049 5965
2049 5969
2049 5989
2049 6679
2049 7176
2049 7455
2049 7662
2049 7792
2049 7994
2049 8264
2049 8412
2049 8773
2049 8881
2049 9013
2049 9020
2049 9102
2049 9156
2049 9158
2049 9199
2049 9506
2050 3284
2050 3338
2050 5061
2050 5276
2050 5388
2050 6180
2050 6522
2050 6561
2050 9069
2050 9143
2050 9692
2051 2627
2051 2848
2051 3022
2051 3631
2051 3662
2051 3990
2051 4070
2051 4317
2051 4845
2051 5393
2051 5483
2051 5550
2051 5763
2051 6024
2051 6845
2051 6993
2051 7040
2051 7175
2051 7287
2051 7885
2051 8376
2051 8419
2051 8710
2051 8782
2051 8807
2051 8857
2051 9003
2051 9122
2051 9305
2051 9638
2051 9868
2051 9997
2052 2263
2052 2466
2052 2598
2052 2611
2052 3401
2052 3764
2052 3790
2052 4013
2052 4187
2052 4264
2052 4542
2052 4583
2052 4700
2052 4836
2052 5236
2052 6325
2052 6376
2052 6678
2052 6957
2052 6979
2052 7081
2052 7175
2052 8055
2052 8171
2052 8808
2052 8939
2052 9060
2052 9205
2052 9328
2052 9446
2052 9580
2052 9824
2053 2466
2053 2635
2053 3309
2053 5716
2053 5820
2053 5980
2053 6887
2054 2814
2054 2868
2054 3596
2054 3784
2054 3939
2054 3996
2054 4044
2054 4116
2054 4404
2054 4784
2054 5897
2054 5947
2054 6091
2054 6634
2054 6682
2054 6768
2054 6806
2054 6827
2054 6994
2054 7089
2054 7254
2054 7779
2054 7797
2054 8234
2054 8541
2054 8673
2054 8999
2054 9039
2054 9139
2054 9330
2054 9545
2054 9734
2054 9832
2054 9919
2055 2116
2055 3631
2055 5247
2055 5797
2055 6788
2055 7267
2055 7751
2055 8059
2055 8345
2055 8358
2055 9042
2055 9763
2056 2099
2056 3246
2056 3299
2056 4793
2056 5215
2056 5272
2056 6372
2056 6594
2056 7382
2056 7428
2056 7554
2056 7627
2056 7900
2056 9000
2056 9304
2057 3480
2057 4534
2057 5552
2057 5560
2057 5928
2057 6309
2057 6371
2057 6539
2057 7242
2057 7870
2057 8284
2057 9994
2058 2457
2058 3370
2058 4595
2058 4615
2058 5404
2058 5802
2058 5910
2058 8746
2058 8787
2058 9048
2058 9552
2058 9954
2059 2142
2059 2529
2059 2652
2059 2836
2059 3414
2059 3505
2059 3651
2059 3837
2059 4074
2059 4121
2059 4257
2059 4730
2059 4784
2059 4985
2059 5457
2059 5623
2059 6003
2059 6406
2059 6527
2059 6741
2059 7185
2059 7922
2059 8050
2059 8058
2059 8329
2059 8479
2059 8962
2059 8970
2059 9107
2059 9166
2059 9321
2059 9639
2059 9661
2060 2503
2060 3271
2060 4043
2060 5053
2060 5270
2060 6158
2060 6545
2060 6842
2060 6864
2060 8406
2060 8839
2060 9003
2061 2096
2061 2192
2061 2259
2061 2693
2061 3388
2061 3394
2061 3437
2061 3852
2061 4985
2061 5245
2061 5604
2061 5931
2061 6399
2061 6432
2061 6460
2061 6900
2061 7553
2061 8135
2061 8240
2061 8894
2061 9043
2061 9256
2061 9483
2062 2781
2062 3471
2062 3647
2062 3909
2062 3938
2062 6022
2062 7725
2062 8565
2062 8696
2063 3119
2063 4929
2063 5348
2063 6125
2063 6617
2063 6708
2063 6837
2063 7237
2063 7353
2063 9098
2063 9783
2064 5200
2064 5237
2064 5845
2064 5961
2064 6027
2064 7787
2064 8124
2064 8353
2064 9322
2064 9697
2065 2322
2065 2369
2065 2871
2065 3481
2065 6200
2065 6822
2065 7063
2065 9273
2065 9382
2066 2169
2066 2490
2066 3806
2066 4223
2066 4291
2066 4801
2066 5592
2066 6468
2066 7396
2066 7679
2066 7846
2066 8125
2066 8542
2066 9296
2066 9902
2067 4797
2067 4832
2067 5157
2067 6012
2067 7267
2067 7852
2067 8534
2067 9357
2068 4055
2068 4657
2068 8443
2068 8791
2068 8835
2068 8986
2068 9003
2069 2581
2069 2635
2069 2962
2069 3124
2069 3187
2069 3337
2069 3492
2069 3578
2069 3606
2069 3775
2069 3862
2069 4311
2069 4401
2069 4811
2069 5156
2069 5382
2069 5452
2069 5616
2069 5936
2069 6112
2069 6304
2069 6306
2069 6348
2069 6449
2069 6854
2069 7405
2069 7513
2069 7752
2069 7937
2069 8295
2069 8609
2069 8964
2069 9129
2069 9978
2070 2735
2070 3407
2070 4890
2070 5239
2070 6564
2070 7068
2070 8436
2070 8672
2070 9650
2071 2264
2071 3164
2071 3596
2071 3658
2071 3721
2071 3810
2071 3820
2071 3987
2071 4268
2071 5017
2071 5473
2071 5687
2071 6402
2071 6585
2071 6873
2071 7298
2071 7556
2071 8355
2071 8364
2071 8581
2071 8635
2071 9772
2072 2151
2072 3248
2072 3322
2072 3440
2072 3872
2072 4092
2072 4573
2072 4640
2072 4672
2072 5020
2072 5717
2072 6074
2072 6153
2072 6259
2072 6354
2072 6544
2072 6811
2072 6875
2072 7251
2072 7328
2072 7470
2072 7928
2072 7957
2072 7966
2072 8063
2072 8620
2072 8642
2072 9136
2072 9865
2073 2770
2073 2792
2073 2832
2073 2851
2073 3693
2073 4229
2073 4340
2073 4989
2073 5840
2073 6016
2073 6310
2073 6727
2073 7980
2073 8383
2073 9375
2073 9942
2074 2108
2074 2173
2074 2938
2074 3176
2074 3963
2074 6909
2074 6959
2074 7857
2074 8554
2074 8900
2074 9689
2075 2552
2075 3546
2075 4307
2075 4587
2075 5445
2075 6274
2075 6916
2075 7410
2075 7674
2075 8228
2075 8355
2075 8557
2075 8666
2075 8744
2075 9360
2075 9665
2076 2398
2076 4666
2076 5388
2076 5805
2076 7406
2076 8300
2076 8394
2076 8785
2077 2454
2077 2981
2077 4761
2077 5219
2077 5483
2077 8329
2077 8472
2077 9116
2077 9763
2077 9918
2078 2269
2078 2912
2078 3111
2078 3517
2078 4074
2078 4328
2078 4329
2078 4399
2078 4815
2078 5819
2078 6721
2078 7483
2078 8421
2078 8809
2078 8875
2078 9677
2079 2254
2079 2259
2079 2800
2079 3055
2079 3804
2079 3857
2079 3926
2079 4271
2079 4358
2079 4472
2079 4574
2079 4617
2079 4680
2079 4774
2079 4872
2079 5307
2079 5406
2079 6026
2079 6653
2079 6949
2079 6951
2079 7424
2079 7467
2079 7511
2079 7649
2079 7853
2079 8222
2079 8420
2079 8500
2079 8844
2079 9264
2079 9579
2080 2130
2080 2469
2080 3243
2080 3366
2080 5949
2080 5951
2080 6757
2080 6961
2080 7880
2080 8035
2080 8173
2080 8435
2080 9196
2081 4130
2081 4507
2081 5481
2081 7332
2081 7424
2081 8059
2081 8379
2081 8472
2081 8553
2081 9422
2081 9440
2081 9866
2082 2158
2082 2169
2082 2646
2082 2673
2082 2952
2082 5724
2082 5990
2082 6086
2082 6157
2082 9012
2082 9052
2082 9878
2083 2767
2083 3525
2083 3641
2083 4142
2083 5876
2083 7486
2083 8117
2083 8205
2083 9208
2083 9581
2083 9669
2084 2858
2084 3726
2084 4030
2084 4524
2084 4854
2084 9079
2085 2392
2085 2457
2085 5872
2085 6099
2085 6155
2085 6974
2085 7526
2085 7559
2085 7701
2085 7875
2085 7913
2085 8113
2085 8428
2085 8772
2085 9089
2085 9181
2085 9689
2085 9751
2085 9813
2085 9992
2086 3139
2086 3745
2086 5444
2086 9440
2086 9731
2087 3588
2087 4511
2087 4995
2087 5506
2087 6469
2087 7410
2087 7840
2087 8128
2087 8835
2087 8986
2087 9750
2088 2940
2088 2972
2088 3955
2088 4806
2088 4858
2088 5805
2088 6613
2088 6664
2088 6665
2088 6743
2088 6919
2088 7211
2088 8650
2088 9124
2088 9838
2089 2810
2089 3714
2089 3812
2089 5936
2089 7914
2089 7969
2089 8043
2089 8375
2089 8647
2089 9673
2089 9742
2090 2401
2090 2638
2090 3711
2090 4149
2090 4528
2090 4543
2090 4618
2090 4846
2090 4890
2090 4973
2090 4974
2090 5413
2090 5857
2090 6009
2090 6505
2090 6554
2090 6601
2090 6912
2090 8458
2090 8614
2090 9299
2090 9971
2091 2671
2091 2682
2091 2887
2091 3616
2091 3849
2091 3915
2091 4036
2091 4152
2091 4167
2091 4178
2091 4240
2091 4738
2091 5270
2091 5820
2091 5828
2091 6077
2091 6319
2091 6549
2091 6867
2091 6949
2091 6990
2091 7228
2091 7528
2091 7696
2091 7740
2091 8324
2091 8413
2091 8603
2091 8734
2091 8821
2091 8852
2091 9218
2091 9573
2091 9663
2091 9818
2091 9858
2092 2182
2092 3489
2092 3821
2092 4792
2092 4928
2092 5186
2092 5295
2092 6465
2092 8250
2092 8252
2092 8478
2092 8778
2093 2903
2093 3708
2093 3717
2093 5138
2093 5387
2093 7102
2093 7278
2093 7481
2093 7552
2093 8289
2093 8917
2093 9667
2094 2158
2094 2384
2094 2771
2094 3241
2094 4375
2094 5416
2094 5917
2094 6580
2094 8815
2094 9286
2094 9507
2094 9839
2094 9942
2095 2537
2095 2618
2095 3143
2095 3239
2095 3712
2095 3922
2095 3962
2095 4415
2095 5097
2095 5392
2095 5476
2095 6332
2095 6499
2095 7150
2095 8570
2095 9359
2096 2429
2096 2620
2096 2910
2096 4391
2096 5173
2096 5510
2096 6096
2096 7166
2096 8132
2096 8941
2096 9043
2096 9985
2097 2267
2097 2875
2097 3379
2097 3715
2097 4171
2097 4555
2097 4617
2097 5646
2097 5972
2097 6532
2097 6795
2097 6799
2097 9044
2097 9435
2098 2601
2098 2993
2098 3504
2098 4389
2098 4766
2098 5396
2098 8314
2098 8581
2098 9919
2099 2740
2099 2836
2099 2955
2099 3066
2099 3448
2099 3478
2099 4269
2099 4300
2099 4556
2099 4922
2099 4965
2099 4977
2099 5478
2099 5571
2099 5624
2099 6051
2099 6129
2099 6936
2099 7050
2099 7064
2099 7145
2099 7443
2099 7922
2099 8143
2099 8367
2099 8414
2099 8660
2099 8741
2099 9866
2099 9873
2099 9879
2100 2620
2100 2962
2100 3293
2100 3390
2100 3430
2100 3513
2100 3771
2100 4655
2100 5464
2100 7456
2100 7752
2100 8233
2100 9669
2100 9743
2101 2333
2101 2681
2101 3023
2101 4398
2101 4481
2101 5203
2101 5577
2101 5693
2101 5857
2101 6062
2101 6632
2101 8250
2102 2273
2102 2362
2102 2369
2102 5542
2102 5715
2102 5756
2102 5945
2102 6061
2102 7151
2102 7378
2102 7949
2102 8784
2102 8819
2102 9042
2102 9648
2102 9899
2103 4461
2103 4867
2103 5168
2103 5668
2103 6559
2103 6563
2103 7117
2103 7652
2103 8818
2103 8872
2103 9305
2103 9649
2103 9874
2104 2550
2104 2645
2104 3583
2104 3804
2104 3846
2104 3901
2104 3910
2104 4475
2104 5073
2104 5175
2104 5377
2104 5383
2104 6032
2104 6208
2104 7208
2104 7369
2104 7396
2104 7589
2104 8052
2104 8775
2104 9345
2104 9969
2105 2331
2105 2421
2105 2608
2105 2916
2105 3052
2105 3429
2105 3481
2105 3601
2105 3762
2105 3977
2105 4436
2105 4453
2105 4944
2105 5093
2105 5215
2105 5224
2105 5425
2105 5659
2105 5677
2105 5973
2105 6029
2105 6091
2105 6165
2105 6274
2105 6275
2105 6306
2105 6350
2105 6370
2105 6456
2105 6872
2105 7259
2105 7540
2105 7593
2105 8165
2105 8282
2105 8634
2105 8960
2105 9746
2105 9955
2106 2530
2106 4215
2106 4587
2106 4831
2106 4992
2106 5572
2106 5797
2106 6295
2106 7297
2106 7895
2106 8184
2106 8276
2106 8339
2106 8848
2106 8970
2106 9494
2106 9947
2106 9969
2107 2349
2107 3259
2107 3936
2107 3975
2107 4138
2107 5349
2107 5988
2107 6797
2107 7310
2107 7924
2107 8360
2107 8502
2107 9198
2107 9573
2107 9905
2108 2202
2108 2315
2108 2979
2108 3349
2108 5037
2108 5930
2108 6474
2108 7093
2108 7416
2108 8187
2108 8410
2108 8670
2108 8709
2108 9750
2109 2369
2109 2568
2109 2635
2109 3102
2109 3432
2109 3934
2109 5226
2109 5383
2109 5849
2109 6291
2109 6354
2109 6441
2109 6626
2109 7335
2109 7339
2109 7413
2109 7449
2109 8325
2109 8535
2109 8762
2109 9508
2110 2166
2110 2688
2110 3315
2110 3959
2110 4086
2110 5367
2110 5443
2110 6568
2110 7574
2110 7837
2110 8147
2111 3056
2111 3414
2111 4291
2111 4715
2111 4902
2111 4965
2111 4970
2111 5592
2111 7588
2111 8082
2111 8632
2111 8953
2111 9072
2111 9528
2111 9600
2111 9806
2112 2635
2112 3128
2112 3971
2112 4122
2112 4795
2112 5207
2112 5225
2112 6489
2112 7045
2112 7160
2112 7296
2112 8387
2112 8741
2112 8892
2113 2443
2113 2685
2113 3793
2113 4186
2113 4882
2113 5543
2113 7218
2113 7440
2113 7615
2113 7653
2113 9566
2114 3004
2114 3765
2114 3862
2114 4972
2114 5580
2114 5642
2114 6772
2114 7323
2114 7835
2114 8772
2115 2965
2115 4441
2115 4904
2115 5817
2115 7659
2116 2148
2116 3425
2116 3428
2116 3805
2116 4143
2116 5169
2116 6431
2116 6472
2116 6650
2116 6807
2116 7109
2116 7167
2116 7802
2116 7859
2116 8108
2116 8388
2116 8578
2116 9768
2117 2347
2117 2728
2117 3606
2117 3625
2117 5401
2117 6714
2117 7811
2117 8015
2117 9400
2117 9447
2118 2665
2118 5173
2118 5602
2118 5675
2118 5918
2118 6308
2118 7263
2118 7543
2118 7791
2119 2218
2119 3072
2119 3139
2119 3448
2119 4138
2119 5131
2119 6445
2119 7139
2119 7627
2119 7699
2119 7722
2119 9195
2119 9912
2119 9968
2120 2963
2120 3164
2120 4629
2120 5850
2120 8467
2120 8576
2120 9192
2121 2286
2121 2929
2121 3629
2121 6534
2121 6959
2121 6983
2121 8043
2121 8136
2121 8607
2121 9034
2122 2597
2122 3076
2122 4188
2122 4911
2122 6013
2122 6352
2122 8527
2122 9326
2122 9675
2123 2206
2123 3354
2123 3552
2123 3874
2123 4391
2123 5222
2123 5469
2123 6191
2123 6284
2123 6604
2123 7443
2123 7839
2123 8553
2123 9093
2124 2461
2124 4995
2124 5002
2124 5018
2124 5499
2124 5681
2124 6196
2124 7696
2124 9017
2124 9872
2124 9950
2124 9975
2125 2638
2125 2697
2125 2958
2125 4001
2125 4192
2125 4218
2125 4630
2125 4790
2125 5146
2125 5728
2125 7185
2125 7261
2125 7433
2125 7481
2125 7531
2125 7724
2125 8060
2125 8243
2125 8262
2125 8665
2125 8719
2125 8742
2125 8911
2125 9869
2125 9972
2126 3223
2126 3393
2126 4452
2126 6671
2126 7626
2126 8408
2126 8818
2126 9132
2126 9843
2127 2841
2127 3015
2127 3148
2127 3569
2127 4067
2127 4490
2127 4587
2127 5002
2127 5255
2127 5723
2127 5996
2127 6236
2127 7030
2127 7564
2127 7949
2127 8024
2127 8794
2127 9241
2127 9563
2127 9577
2127 9661
2127 9892
2128 2415
2128 2499
2128 2661
2128 2687
2128 2726
2128 3563
2128 4740
2128 4924
2128 5180
2128 5458
2128 5558
2128 7056
2128 8391
2128 8753
2128 8824
2128 9400
2129 2330
2129 2526
2129 3173
2129 3319
2129 4066
2129 4297
2129 4750
2129 5537
2129 5695
2129 5733
2129 6441
2129 6490
2129 6550
2129 6641
2129 6900
2129 7327
2129 7467
2129 7686
2129 8078
2129 8850
2129 9759
2130 2727
2130 2865
2130 3799
2130 4038
2130 4120
2130 4236
2130 4738
2130 4964
2130 4996
2130 5226
2130 6025
2130 6524
2130 6600
2130 7040
2130 7230
2130 7618
2130 7642
2130 7934
2130 8235
2130 8455
2130 8778
2130 8923
2130 9075
2130 9532
2130 9533
2131 2135
2131 2192
2131 3381
2131 3724
2131 4386
2131 4596
2131 6373
2131 6587
2131 7303
2131 7985
2131 9093
2131 9923
2132 3649
2132 3699
2132 3797
2132 3818
2132 4436
2132 5309
2132 5396
2132 6540
2132 8223
2132 8471
2132 9188
2133 4414
2133 6161
2133 7444
2133 7744
2133 8925
2133 9278
2134 3820
2134 4410
2134 5399
2134 6023
2134 6402
2134 8291
2134 8820
2134 9477
2135 2827
2135 3314
2135 3381
2135 3433
2135 4596
2135 4817
2135 6587
2135 6861
2135 7408
2135 7938
2135 8003
2136 2328
2136 2378
2136 2595
2136 3855
2136 4766
2136 5034
2136 5095
2136 5735
2136 5873
2136 6584
2136 6806
2136 6871
2136 7011
2136 7428
2136 7749
2136 8511
2136 9005
2136 9113
2136 9236
2136 9562
2136 9755
2136 9953
2137 3531
2137 3821
2137 4691
2137 4788
2137 5486
2137 6846
2137 6857
2137 6883
2137 7081
2137 7161
2137 7652
2137 8289
2137 8653
2137 9187
2137 9781
2137 9968
2138 2830
2138 3080
2138 3658
2138 4932
2138 5210
2138 5633
2138 5739
2138 6593
2138 7421
2138 7741
2138 8420
2139 2145
2139 2211
2139 2360
2139 3003
2139 4157
2139 4289
2139 6231
2139 6369
2139 8393
2139 8829
2139 8836
2140 3099
2140 3235
2140 3627
2140 5285
2140 6228
2140 6454
2140 6647
2140 8156
2140 8890
2140 8916
2140 9390
2141 2147
2141 2197
2141 2640
2141 3362
2141 3446
2141 3682
2141 4085
2141 4246
2141 4344
2141 4377
2141 4436
2141 4910
2141 6616
2141 7465
2141 7623
2141 7882
2141 8740
2142 2780
2142 2981
2142 3036
2142 3164
2142 3304
2142 3769
2142 3772
2142 4774
2142 5260
2142 5648
2142 5958
2142 6117
2142 6451
2142 6518
2142 6567
2142 6699
2142 7122
2142 7509
2142 7752
2142 7950
2142 8280
2142 8342
2142 8519
2142 8646
2142 8773
2142 8976
2142 8977
2142 9439
2142 9479
2142 9505
2142 9543
2142 9757
2142 9981
2143 2420
2143 3534
2143 5886
2143 7073
2143 7950
2143 8560
2143 8617
2143 9211
2144 2748
2144 2843
2144 2868
2144 3565
2144 4749
2144 5277
2144 5411
2144 5543
2144 6429
2144 7136
2144 7264
2144 8097
2144 8179
2144 8389
2144 8566
2144 8650
2144 8653
2144 8927
2145 2287
2145 2297
2145 3097
2145 3296
2145 3958
2145 4689
2145 4759
2145 4900
2145 4943
2145 6408
2145 6674
2145 6698
2145 7250
2145 7317
2145 8046
2145 8153
2145 8195
2145 8427
2145 8764
2145 8959
2145 9184
2145 9390
2145 9884
2146 2827
2146 3721
2146 3881
2146 4449
2146 6823
2146 7802
2146 7920
2146 8601
2146 9558
2146 9755
2146 9773
2146 9906
2147 3069
2147 3201
2147 3372
2147 3399
2147 3654
2147 3659
2147 3816
2147 4359
2147 4567
2147 5210
2147 5535
2147 5894
2147 6450
2147 6481
2147 6599
2147 6826
2147 6855
2147 7149
2147 7626
2147 7820
2147 8548
2147 8559
2147 9191
2148 2986
2148 3360
2148 4277
2148 4819
2148 4845
2148 4977
2148 5431
2148 5900
2148 5948
2148 6576
2148 6579
2148 6761
2148 6980
2148 8464
2149 3198
2149 4051
2149 4129
2149 4423
2149 6014
2149 6080
2149 6190
2149 6565
2149 6872
2149 7650
2149 7818
2149 7949
2149 8307
2149 9015
2150 2963
2150 3232
2150 3295
2150 3585
2150 3963
2150 4061
2150 4737
2150 6556
2150 6697
2150 7061
2151 2685
2151 3047
2151 4273
2151 4635
2151 4775
2151 5374
2151 6083
2151 7030
2151 7449
2151 7951
2151 8878
2151 9793
2151 9913
2152 2910
2152 3252
2152 3730
2152 3963
2152 5159
2152 5384
2152 5433
2152 6949
2152 7005
2152 7123
2152 8465
2152 8544
2152 9649
2152 9779
2153 2635
2153 2804
2153 4471
2153 4507
2153 4544
2153 5434
2153 5834
2153 7045
2153 7123
2153 7237
2153 8034
2153 8408
2153 8465
2154 3140
2154 4577
2154 4584
2154 4768
2154 5654
2154 6313
2154 8635
2154 8646
2155 2266
2155 2658
2155 3068
2155 3653
2155 3753
2155 5124
2155 5597
2155 6420
2155 6883
2155 9408
2155 9973
2156 3068
2156 4891
2156 8225
2156 8489
2156 9444
2156 9533
2157 2206
2157 3223
2157 3462
2157 3576
2157 3854
2157 4103
2157 4694
2157 5742
2157 6148
2157 6200
2157 6483
2157 6554
2157 7679
2157 8125
2157 8787
2157 8867
2157 9289
2157 9463
2157 9949
2158 2251
2158 3893
2158 4203
2158 4302
2158 4476
2158 4760
2158 5376
2158 5399
2158 5946
2158 6312
2158 7786
2158 8769
2158 8919
2158 8967
2159 2778
2159 3065
2159 3253
2159 3509
2159 3649
2159 4299
2159 4804
2159 5147
2159 5433
2159 6073
2159 6680
2159 7039
2159 7392
2159 7583
2159 7938
2159 8138
2159 8171
2159 8368
2159 8459
2159 9193
2159 9317
2159 9462
2159 9490
2159 9931
2160 3649
2160 4204
2160 5139
2160 6247
2160 7679
2160 8524
2160 9007
2160 9037
2160 9381
2160 9511
2161 2207
2161 2281
2161 5940
2161 6210
2161 7176
2161 7522
2161 7786
2161 9008
2162 3071
2162 4284
2162 5609
2162 5830
2162 6303
2162 7255
2162 8032
2162 8289
2162 9127
2163 2580
2163 3570
2163 4101
2163 4416
2163 6010
2163 6317
2163 8194
2163 8230
2163 8355
2163 8434
2163 9318
2163 9640
2164 2535
2164 2625
2164 2733
2164 4287
2164 4436
2164 4845
2164 5342
2164 6379
2164 6597
2164 7456
2164 7690
2164 8375
2164 8417
2164 9116
2164 9210
2164 9267
2164 9286
2164 9760
2164 9922
2165 2927
2165 3907
2165 4461
2165 4915
2165 5252
2165 5987
2165 6625
2165 6790
2165 6884
2165 7345
2165 8387
2165 8620
2165 8774
2165 8917
2165 9048
2165 9092
2165 9505
2165 9932
2166 2275
2166 3890
2166 3937
2166 4504
2166 5445
2166 5788
2166 6477
2166 6583
2166 7903
2167 2524
2167 3016
2167 4240
2167 6065
2167 8397
2167 8822
2167 8834
2167 9288
2167 9383
2167 9538
2167 9965
2168 2324
2168 3751
2168 5620
2168 6077
2168 7068
2168 7856
2168 8436
2168 8592
2168 8832
2169 2201
2169 2490
2169 2540
2169 2736
2169 2750
2169 3286
2169 3555
2169 3806
2169 3901
2169 4851
2169 5027
2169 5058
2169 5338
2169 5449
2169 6385
2169 6405
2169 6466
2169 6707
2169 7304
2169 7451
2169 7846
2169 7993
2169 8576
2169 8822
2169 8866
2169 9161
2169 9174
2169 9296
2169 9555
2169 9574
2169 9686
2169 9747
2170 2455
2170 2584
2170 2719
2170 3014
2170 3412
2170 3415
2170 3537
2170 4280
2170 4461
2170 5269
2170 5743
2170 5998
2170 6019
2170 6079
2170 6315
2170 6715
2170 7129
2170 7256
2170 8008
2170 8236
2170 8458
2170 8486
2170 8625
2170 9104
2170 9383
2170 9627
2170 9838
2170 9987
2171 2271
2171 2573
2171 3113
2171 3403
2171 4960
2171 5377
2171 7675
2171 9049
2171 9288
2172 2630
2172 2716
2172 3057
2172 4236
2172 4935
2172 5380
2172 5569
2172 5845
2172 6416
2172 6892
2172 7229
2172 7613
2172 7802
2172 8439
2172 9012
2172 9070
2172 9689
2172 9771
2173 2409
2173 2816
2173 2993
2173 3015
2173 3040
2173 3391
2173 3449
2173 3512
2173 3606
2173 3963
2173 4014
2173 4679
2173 4741
2173 4800
2173 5274
2173 5279
2173 5685
2173 5831
2173 5932
2173 6525
2173 7268
2173 7321
2173 7492
2173 7555
2173 7764
2173 8091
2173 8164
2173 8476
2173 8858
2173 9064
2173 9143
2173 9346
2173 9456
2174 4042
2174 4735
2174 5042
2174 5061
2174 5087
2174 5640
2174 6128
2174 6136
2174 7021
2174 9859
2175 2280
2175 2613
2175 3486
2175 3836
2175 3982
2175 4416
2175 4710
2175 4736
2175 5054
2175 5417
2175 5894
2175 5919
2175 6021
2175 6208
2175 6336
2175 6448
2175 6837
2175 6969
2175 7190
2175 7277
2175 7354
2175 7512
2175 7757
2175 7858
2175 7943
2175 7946
2175 8537
2175 8678
2175 8714
2175 8735
2175 9000
2175 9022
2175 9384
2175 9971
2176 4705
2176 5141
2176 5256
2176 5406
2176 6662
2176 6747
2176 7556
2176 8259
2176 9478
2176 9893
2176 9994
2177 2209
2177 2526
2177 2574
2177 3194
2177 3553
2177 4054
2177 4281
2177 4333
2177 4781
2177 4798
2177 4842
2177 5185
2177 5311
2177 5402
2177 5452
2177 5672
2177 6397
2177 9856
2178 3071
2178 3185
2178 4297
2178 4417
2178 5644
2178 6201
2178 6355
2178 6490
2178 7369
2178 7499
2178 7876
2178 8221
2178 8222
2178 8634
2178 9106
2178 9388
2178 9513
2179 2292
2179 2527
2179 3513
2179 3790
2179 4308
2179 5716
2179 5884
2179 7620
2179 7623
2179 7721
2179 7980
2179 8127
2180 4536
2180 5313
2180 5582
2180 6120
2180 6784
2180 7926
2180 8347
2180 8355
2180 8446
2180 9352
2181 2455
2181 2835
2181 4081
2181 4187
2181 6298
2181 6723
2181 6831
2181 7742
2181 8116
2181 8342
2181 8864
2181 8969
2181 9024
2181 9534
2182 2398
2182 2705
2182 3020
2182 3630
2182 6308
2182 6991
2182 7713
2182 8156
2182 9871
2183 2203
2183 2696
2183 2803
2183 2884
2183 3574
2183 3915
2183 4089
2183 4137
2183 4181
2183 4285
2183 4348
2183 4687
2183 5550
2183 5585
2183 5632
2183 5778
2183 6171
2183 6272
2183 6542
2183 6645
2183 6695
2183 6745
2183 7295
2183 7716
2183 8360
2183 8421
2183 9864
2184 3763
2184 4004
2184 4138
2184 4357
2184 4525
2184 4993
2184 5150
2184 5891
2184 6786
2184 7237
2184 9594
2185 2680
2185 2920
2185 3129
2185 3242
2185 3785
2185 4150
2185 4234
2185 4580
2185 4728
2185 4839
2185 5341
2185 5710
2185 5968
2185 6225
2185 6459
2185 7229
2185 8023
2185 8492
2185 8570
2185 8602
2185 8745
2185 8746
2185 8771
2185 9247
2185 9309
2185 9428
2185 9685
2186 2545
2186 3303
2186 3715
2186 4738
2186 5241
2186 5702
2186 6842
2186 8941
2186 9310
2186 9320
2186 9371
2187 3175
2187 3477
2187 3598
2187 4262
2187 4327
2187 4470
2187 4639
2187 4828
2187 5269
2187 6212
2187 6551
2187 6956
2187 7239
2187 7555
2187 7889
2187 8000
2187 8375
2187 8945
2187 8964
2187 9132
2188 2548
2188 3095
2188 4311
2188 5808
2188 6154
2188 6870
2188 7782
2188 8412
2188 8722
2188 9899
2189 2203
2189 2306
2189 2669
2189 3005
2189 3103
2189 3179
2189 3287
2189 4724
2189 4782
2189 4806
2189 4908
2189 5190
2189 5218
2189 5226
2189 5270
2189 6078
2189 6537
2189 6646
2189 6796
2189 6888
2189 7333
2189 8038
2189 8586
2189 8850
2189 8990
2189 9256
2190 2619
2190 2963
2190 3766
2190 4189
2190 4287
2190 4605
2190 5265
2190 6139
2190 6943
2190 7006
2190 7244
2190 7285
2190 8130
2190 8818
2190 8839
2190 9143
2190 9231
2190 9269
2190 9349
2190 9400
2190 9749
2190 9931
2191 3724
2191 3883
2191 4689
2191 4750
2191 5598
2191 6156
2191 6653
2191 6665
2191 7085
2191 7200
2191 7953
2191 8136
2191 9148
2191 9570
2191 9804
2191 9890
2192 2226
2192 2541
2192 2832
2192 2897
2192 2942
2192 2974
2192 3150
2192 3307
2192 3315
2192 3411
2192 3980
2192 4380
2192 4434
2192 4647
2192 4661
2192 4746
2192 5242
2192 5466
2192 5689
2192 5706
2192 6064
2192 6072
2192 6292
2192 6758
2192 6891
2192 6973
2192 7638
2192 8207
2192 8442
2192 8475
2192 9796
2192 9841
2193 2547
2193 3112
2193 3164
2193 5260
2193 5966
2193 6414
2193 7794
2193 8130
2193 8156
2193 8548
2193 8565
2193 8681
2193 9013
2194 2389
2194 2890
2194 4098
2194 4320
2194 6207
2194 6639
2194 7621
2194 8724
2194 9019
2194 9261
2194 9325
2195 2434
2195 2848
2195 2977
2195 3350
2195 3390
2195 3406
2195 3410
2195 3413
2195 3632
2195 3812
2195 4029
2195 4142
2195 4491
2195 4590
2195 4682
2195 4867
2195 4886
2195 6156
2195 6361
2195 6808
2195 6859
2195 6996
2195 7169
2195 7276
2195 7393
2195 7462
2195 7799
2195 8228
2195 8486
2195 8939
2196 2616
2196 4555
2196 5791
2196 6237
2196 7799
2196 9093
2196 9396
2197 2222
2197 2564
2197 2952
2197 3735
2197 3793
2197 3814
2197 4206
2197 4412
2197 5153
2197 5757
2197 5801
2197 5905
2197 7220
2197 7787
2197 8044
2197 8159
2197 8951
2197 8963
2198 2218
2198 2303
2198 2708
2198 3219
2198 3590
2198 3697
2198 3700
2198 4262
2198 4366
2198 4393
2198 4641
2198 5552
2198 5964
2198 5993
2198 6132
2198 6649
2198 6839
2198 6867
2198 7048
2198 7329
2198 7761
2198 7878
2198 8064
2198 8306
2198 8321
2198 8461
2198 8702
2198 8707
2198 9224
2198 9820
2198 9911
2199 3472
2199 4272
2199 4643
2199 5015
2199 5865
2199 6559
2199 6589
2199 6760
2199 6964
2199 7361
2199 7976
2199 8122
2199 8204
2200 2464
2200 2555
2200 3443
2200 4275
2200 4872
2200 4896
2200 5317
2200 6389
2200 7196
2200 7964
2200 8652
2200 8691
2200 9193
2200 9247
2200 9510
2201 4460
2201 5503
2201 5662
2201 5897
2201 6837
2201 6845
2201 7405
2201 8107
2201 9245
2202 2856
2202 3324
2202 4671
2202 6182
2202 7461
2202 8613
2202 8670
2202 8741
2202 9750
2203 2325
2203 2687
2203 2776
2203 2908
2203 2981
2203 3313
2203 3430
2203 3922
2203 3940
2203 4106
2203 4135
2203 4296
2203 4748
2203 5045
2203 5251
2203 5300
2203 6030
2203 6510
2203 6550
2203 7046
2203 7343
2203 7698
2203 8149
2203 8232
2203 8772
2203 9096
2203 9245
2203 9416
2203 9688
2204 3639
2204 3689
2204 3970
2204 4704
2204 4841
2204 5055
2204 5337
2204 6262
2204 8648
2204 9407
2205 2494
2205 2496
2205 3005
2205 3226
2205 3973
2205 4940
2205 6060
2205 6767
2205 7430
2205 7461
2205 7689
2205 7816
2205 8861
2206 2397
2206 2440
2206 2564
2206 2644
2206 2803
2206 2811
2206 2820
2206 3130
2206 3797
2206 3869
2206 3935
2206 4343
2206 4712
2206 4994
2206 5231
2206 5293
2206 5323
2206 5463
2206 7342
2206 7607
2206 7660
2206 8286
2206 8635
2206 8933
2206 9613
2206 9901
2207 3825
2207 4926
2207 5502
2207 5762
2207 6225
2207 7204
2207 7978
2207 8072
2207 8928
2208 3013
2208 4024
2208 4268
2208 4506
2208 4600
2208 4603
2208 5653
2208 6689
2208 6737
2208 6815
2208 7724
2208 8144
2208 8517
2208 9168
2208 9621
2208 9648
2208 9652
2208 9809
2209 2266
2209 4585
2209 6077
2209 6081
2209 6150
2209 6196
2209 6896
2209 7147
2209 7450
2209 7516
2209 8026
2209 8246
2209 8812
2209 8969
2209 9663
2209 9692
2209 9776
2210 2442
2210 2816
2210 3253
2210 4544
2210 5819
2210 6121
2210 6167
2210 8253
2210 8412
2210 8737
2211 2360
2211 2490
2211 2544
2211 3112
2211 3145
2211 4168
2211 4289
2211 4464
2211 7166
2211 7625
2211 7928
2211 8393
2211 8836
2211 9798
2212 2237
2212 2688
2212 3079
2212 4613
2212 5484
2212 5667
2212 6911
2212 6938
2212 7705
2212 8033
2212 8190
2212 9612
2212 9822
2212 9936
2213 2354
2213 3206
2213 4177
2213 4590
2213 4680
2213 5063
2213 5239
2213 5895
2213 6731
2213 6857
2213 7308
2213 7389
2213 7461
2213 7513
2213 7720
2213 7721
2213 7737
2213 8342
2213 8941
2213 9383
2213 9811
2214 3073
2214 3187
2214 3477
2214 4199
2214 4429
2214 4436
2214 4934
2214 5708
2214 7107
2214 7156
2214 8702
2214 8839
2214 9075
2215 3248
2215 4080
2215 4581
2215 5035
2215 7175
2215 7964
2215 8729
2215 8964
2216 2589
2216 2907
2216 3227
2216 3228
2216 3274
2216 3658
2216 4220
2216 7105
2216 7833
2216 8074
2216 8200
2216 8449
2216 8561
2216 8693
2216 9567
2216 9763
2217 2939
2217 3349
2217 4116
2217 4913
2217 5540
2217 6310
2217 7583
2217 7735
2217 8509
2217 8572
2217 9356
2217 9863
2218 2630
2218 2653
2218 2816
2218 3818
2218 4556
2218 4605
2218 4907
2218 5107
2218 5548
2218 6822
2218 7996
2218 8270
2218 8418
2218 8829
2218 9591
2218 9821
2219 2798
2219 4005
2219 4127
2219 4460
2219 5350
2219 6061
2219 6515
2219 6536
2219 7006
2219 9367
2220 3008
2220 3084
2220 3475
2220 5805
2220 7535
2220 8566
2220 9203
2220 9243
2220 9336
2220 9514
2220 9731
2221 3409
2221 5014
2221 5396
2221 5713
2221 7865
2221 7945
2221 9831
2222 2367
2222 2563
2222 2791
2222 3103
2222 4473
2222 4527
2222 4869
2222 5153
2222 7220
2222 7589
2222 8951
2222 9978
2223 2260
2223 2263
2223 2351
2223 4564
2223 4593
2223 5162
2223 5815
2223 5894
2223 6331
2223 8521
2223 8798
2223 9157
2223 9621
2224 3408
2224 5270
2224 5607
2224 6516
2224 6845
2224 8044
2224 9066
2225 3149
2225 3574
2225 4434
2225 4587
2225 4939
2225 6359
2225 7207
2225 7327
2225 7851
2225 8355
2225 8474
2225 8565
2225 9489
2225 9561
2225 9914
2226 2541
2226 3150
2226 3307
2226 3500
2226 5996
2226 6034
2226 6064
2226 6891
2226 6973
2226 8541
2226 9498
2226 9559
2227 3972
2227 4691
2227 5173
2227 5326
2227 5581
2227 5649
2227 8791
2228 2631
2228 3077
2228 3289
2228 3552
2228 4345
2228 4629
2228 4847
2228 5361
2228 5670
2228 5930
2228 7848
2228 7909
2228 7952
2228 8143
2228 8435
2228 9355
2229 3036
2229 3125
2229 5535
2229 5662
2229 6864
2229 7458
2229 7552
2229 8273
2229 9374
2230 2982
2230 3472
2230 3688
2230 4043
2230 4103
2230 4204
2230 4219
2230 4706
2230 5118
2230 5140
2230 6559
2230 7021
2230 7077
2230 9474
2230 9630
2230 9844
2231 2434
2231 2777
2231 4680
2231 4695
2231 4733
2231 6608
2231 7906
2231 8707
2232 3109
2232 4362
2232 4503
2232 5449
2232 6499
2232 6910
2232 6986
2232 7809
2232 8906
2233 2537
2233 3001
2233 3352
2233 3918
2233 4677
2233 4888
2233 5352
2233 5424
2233 5825
2233 6460
2233 6746
2233 7486
2233 8050
2233 9231
2234 2771
2234 2965
2234 3135
2234 3790
2234 5766
2234 5831
2234 6485
2234 7721
2234 8127
2234 8446
2234 8880
2235 2764
2235 2902
2235 3963
2235 4093
2235 5023
2235 5379
2235 8377
2235 8981
2235 9861
2236 3257
2236 3304
2236 4104
2236 4212
2236 5322
2236 5954
2236 6005
2236 6402
2236 8126
2237 2238
2237 3722
2237 4057
2237 4613
2237 5667
2237 5930
2237 6218
2237 8190
2237 8797
2237 9369
2237 9612
2238 2833
2238 2993
2238 7820
2238 8316
2238 9149
2238 9380
2239 2300
2239 2556
2239 2796
2239 3256
2239 3286
2239 3688
2239 4072
2239 4371
2239 4437
2239 4648
2239 4739
2239 4955
2239 5133
2239 5249
2239 5327
2239 5464
2239 6111
2239 6301
2239 6598
2239 6691
2239 6958
2239 7054
2239 7058
2239 7936
2239 8169
2239 8737
2239 9036
2239 9323
2240 2509
2240 2676
2240 2678
2240 2680
2240 3053
2240 3249
2240 3638
2240 3735
2240 4519
2240 4548
2240 4550
2240 4619
2240 4621
2240 4763
2240 4765
2240 4864
2240 5127
2240 5960
2240 6015
2240 6254
2240 6590
2240 6783
2240 7081
2240 7131
2240 7183
2240 7188
2240 7285
2240 7486
2240 7601
2240 7895
2240 8042
2240 8302
2240 8412
2240 9003
2240 9099
2240 9259
2240 9617
2240 9706
2241 2782
2241 2839
2241 3156
2241 3412
2241 3479
2241 4202
2241 4309
2241 4562
2241 4585
2241 4647
2241 4744
2241 4814
2241 4832
2241 5060
2241 5914
2241 6794
2241 7082
2241 7205
2241 7281
2241 8081
2241 8446
2241 9323
2241 9349
2241 9581
2241 9617
2241 9855
2242 2481
2242 3140
2242 3205
2242 3348
2242 3607
2242 3874
2242 4240
2242 4346
2242 4504
2242 5068
2242 6988
2242 7518
2242 7702
2242 9985
2243 5187
2243 5505
2243 5550
2243 5706
2243 6848
2243 7838
2243 8375
2244 3560
2244 4081
2244 4846
2244 5168
2244 5297
2244 6948
2244 6969
2245 2381
2245 2521
2245 5407
2245 7421
2245 7472
2245 8315
2245 8421
2245 8566
2245 8912
2245 9224
2245 9428
2246 2325
2246 3713
2246 3777
2246 4120
2246 5970
2246 6349
2246 8535
2246 9059
2247 2499
2247 3349
2247 4445
2247 4599
2247 5125
2247 6007
2247 6902
2247 7063
2247 7296
2247 7694
2247 8605
2247 8670
2247 8827
2247 9394
2248 2364
2248 4383
2248 5330
2248 5554
2248 7233
2248 8549
2248 9037
2249 2319
2249 3737
2249 4627
2249 5665
2249 7118
2249 8740
2249 9117
2249 9755
2250 3599
2250 4829
2250 6514
2250 6608
2250 8172
2250 8779
2250 8897
2250 9331
2250 9620
2250 9640
2250 9967
2251 3651
2251 4360
2251 5332
2251 5333
2251 6408
2251 6599
2251 7677
2251 7970
2251 8108
2251 8633
2251 9287
2252 2560
2252 3567
2252 3732
2252 5550
2252 6160
2252 7100
2252 7823
2252 9375
2253 2954
2253 3102
2253 3775
2253 4422
2253 5265
2253 5523
2253 6876
2253 7217
2253 7609
2253 7651
2253 8639
2253 8854
2253 8901
2253 9510
2253 9905
2254 2553
2254 5235
2254 5406
2254 5494
2254 6571
2254 8183
2254 8372
2255 2855
2255 2886
2255 3614
2255 3718
2255 4197
2255 4691
2255 6465
2255 6777
2255 7361
2255 7717
2255 7776
2255 8280
2255 9259
2255 9382
2255 9763
2256 2636
2256 5216
2256 5506
2256 6443
2256 7694
2256 8109
2256 8325
2256 8718
2256 9464
2257 4177
2257 5299
2257 6253
2257 6993
2257 7752
2257 9003
2258 2362
2258 2493
2258 5208
2258 5702
2258 5918
2258 6173
2258 7188
2258 7556
2258 8009
2258 8431
2258 8472
2258 8583
2259 2693
2259 3437
2259 5245
2259 6603
2259 7411
2259 8148
2260 2700
2260 3027
2260 3713
2260 3894
2260 4407
2260 4968
2260 5435
2260 5682
2260 6145
2260 6457
2260 6681
2260 7336
2260 7353
2260 7381
2260 7407
2260 8282
2260 8466
2260 8494
2260 8540
2260 8747
2260 8818
2260 9431
2260 9549
2260 9630
2260 9688
2260 9758
2260 9965
2261 2903
2261 4422
2261 4667
2261 4932
2261 5501
2261 5587
2261 5888
2261 7107
2261 9695
2262 2445
2262 3079
2262 3146
2262 3460
2262 4240
2262 4887
2262 4946
2262 5427
2262 5463
2262 6872
2262 7861
2262 8191
2263 2804
2263 3764
2263 4013
2263 4091
2263 4264
2263 4283
2263 4567
2263 5482
2263 6678
2263 7680
2263 8082
2263 8639
2263 8808
2263 8997
2263 9273
2263 9328
2263 9580
2264 2366
2264 2415
2264 2570
2264 2857
2264 3103
2264 4070
2264 4757
2264 7894
2264 9513
2265 2434
2265 2685
2265 2727
2265 2895
2265 3075
2265 3089
2265 6543
2265 6800
2265 6863
2265 7720
2265 7890
2265 8057
2265 8163
2265 9017
2265 9153
2265 9996
2266 2872
2266 3133
2266 3591
2266 3653
2266 3660
2266 4048
2266 4125
2266 5280
2266 5390
2266 5727
2266 5881
2266 6296
2266 6420
2266 7966
2266 8256
2266 9432
2266 9483
2266 9998
2267 2303
2267 2477
2267 2651
2267 2960
2267 3210
2267 3379
2267 3726
2267 4114
2267 4555
2267 5328
2267 5339
2267 5460
2267 5646
2267 5813
2267 6198
2267 6257
2267 6393
2267 6532
2267 6582
2267 6866
2267 6944
2267 8567
2267 8842
2267 9097
2267 9221
2267 9526
2267 9618
2267 9669
2267 9670
2268 2369
2268 2594
2268 2794
2268 3062
2268 3333
2268 3575
2268 3621
2268 3696
2268 3753
2268 3815
2268 4837
2268 4955
2268 5109
2268 5124
2268 5328
2268 5571
2268 5763
2268 5808
2268 5914
2268 6079
2268 6723
2268 6822
2268 7067
2268 7684
2268 8025
2268 8145
2268 8280
2268 8489
2268 8627
2268 8960
2268 8992
2268 9607
2268 9684
2268 9882
2268 9978
2269 2799
2269 4187
2269 4285
2269 6149
2269 6326
2269 6549
2269 7289
2270 2325
2270 2364
2270 2897
2270 5691
2270 6280
2270 6364
2270 6435
2270 6722
2270 6852
2270 7618
2270 8355
2271 2726
2271 2897
2271 2910
2271 3089
2271 3266
2271 3370
2271 3616
2271 3800
2271 3917
2271 4066
2271 4300
2271 4579
2271 5286
2271 5453
2271 5460
2271 5561
2271 5706
2271 5814
2271 6092
2271 6625
2271 7142
2271 7198
2271 7199
2271 7312
2271 7844
2271 8097
2271 8346
2271 8830
2271 9242
2272 3221
2272 3235
2272 3243
2272 4958
2272 5651
2272 5685
2272 6089
2272 6140
2272 6919
2272 7410
2272 8852
2272 9219
2272 9232
2272 9587
2273 5550
2273 6037
2273 6495
2273 6580
2273 6961
2273 8127
2273 9126
2273 9303
2273 9982
2274 2312
2274 2349
2274 2496
2274 2902
2274 3401
2274 3545
2274 3924
2274 3985
2274 4084
2274 4088
2274 4217
2274 5698
2274 5928
2274 6255
2274 6642
2274 7293
2274 7609
2274 8077
2274 8244
2274 8245
2274 8726
2274 8852
2274 8949
2274 9116
2274 9459
2274 9533
2274 9794
2274 9978
2275 2329
2275 2561
2275 2777
2275 2952
2275 3562
2275 4402
2275 4445
2275 4704
2275 4955
2275 5197
2275 5427
2275 5581
2275 5830
2275 5995
2275 6255
2275 6280
2275 6329
2275 6423
2275 6614
2275 6760
2275 7076
2275 7279
2275 7692
2275 8144
2275 8580
2275 8698
2275 8870
2275 9307
2275 9337
2275 9559
2275 9590
2275 9639
2275 9906
2276 3988
2276 4101
2276 4200
2276 4237
2276 5370
2276 5496
2276 6060
2276 6286
2276 8496
2276 9449
2276 9650
2276 9657
2276 9665
2277 2891
2277 2971
2277 2982
2277 3827
2277 3837
2277 4689
2277 4995
2277 6484
2277 7091
2277 7910
2277 8681
2277 8729
2277 8874
2277 9946
2278 3089
2278 5088
2278 5169
2278 6383
2278 6490
2278 6733
2278 7229
2278 9545
2279 3669
2279 3681
2279 3800
2279 6351
2279 7234
2279 8133
2279 8564
2279 8841
2279 9702
2279 9918
2280 3473
2280 4164
2280 4302
2280 4965
2280 5739
2280 6153
2280 8399
2280 8696
2281 2611
2281 3102
2281 3652
2281 5564
2281 5569
2281 6210
2281 6755
2281 7176
2281 7696
2281 8388
2281 8883
2281 9824
2281 9960
2282 2575
2282 2598
2282 2720
2282 2801
2282 2934
2282 3157
2282 3325
2282 4001
2282 4682
2282 4741
2282 4776
2282 4846
2282 5608
2282 5756
2282 6656
2282 6983
2282 7799
2282 7992
2282 8811
2282 9736
2283 2419
2283 2860
2283 3990
2283 5204
2283 5459
2283 7683
2283 8024
2283 8127
2283 8513
2283 9449
2283 9598
2284 3244
2284 3459
2284 3574
2284 4205
2284 4452
2284 5163
2284 5928
2284 6774
2284 6994
2284 7710
2284 8066
2284 8555
2284 9151
2284 9548
2285 3417
2285 3554
2285 4302
2285 4314
2285 6198
2285 6246
2285 7052
2285 7289
2285 7569
2285 7981
2285 8195
2285 8886
2285 9139
2285 9475
2286 2555
2286 2625
2286 2687
2286 2726
2286 4134
2286 4924
2286 5092
2286 8232
2286 8391
2287 2892
2287 3584
2287 3788
2287 3842
2287 4241
2287 4954
2287 5015
2287 5584
2287 5925
2287 5927
2287 6543
2287 6822
2287 8016
2287 8103
2287 8372
2287 9132
2287 9179
2287 9457
2287 9797
2288 2324
2288 3828
2288 4850
2288 4948
2288 5433
2288 5544
2288 6405
2288 7026
2288 7123
2288 7311
2288 8044
2288 8628
2288 9062
2288 9431
2288 9455
2288 9748
2289 3661
2289 4161
2289 4429
2289 5162
2289 5173
2289 6025
2289 6182
2289 6396
2289 6403
2289 6617
2289 6846
2289 7217
2289 7688
2289 7990
2289 8124
2289 9884
2290 2443
2290 2941
2290 3054
2290 3423
2290 3508
2290 3705
2290 3820
2290 3915
2290 4124
2290 4273
2290 4483
2290 4545
2290 5227
2290 5291
2290 5692
2290 5886
2290 5936
2290 6369
2290 6966
2290 7655
2290 7662
2290 7785
2290 8138
2290 8331
2290 8456
2290 8469
2290 8471
2290 8642
2290 8657
2290 9887
2290 9941
2291 2797
2291 4861
2291 5433
2291 6246
2291 6304
2291 6543
2291 6850
2291 8054
2291 8542
2291 9186
2291 9295
2292 2663
2292 3022
2292 3313
2292 3417
2292 3648
2292 4829
2292 5061
2292 6119
2292 6152
2292 7429
2292 7485
2292 7510
2292 8632
2292 9074
2293 2897
2293 3466
2293 7950
2293 8142
2293 8521
2293 8601
2293 9286
2293 9403
2294 2425
2294 2754
2294 2768
2294 5633
2294 6076
2294 7015
2294 7333
2294 8589
2294 8666
2294 9449
2295 3117
2295 3454
2295 3607
2295 5225
2295 5595
2295 5747
2295 6292
2295 6435
2295 6854
2295 7939
2295 8139
2295 8167
2295 8190
2295 9132
2295 9152
2295 9853
2296 2458
2296 2885
2296 3231
2296 3674
2296 4516
2296 5184
2296 5844
2296 6432
2296 6820
2296 6886
2296 7129
2296 7165
2296 8338
2296 9464
2297 2324
2297 2656
2297 2979
2297 3329
2297 3973
2297 4431
2297 4705
2297 4910
2297 4964
2297 5933
2297 7172
2297 7277
2297 7375
2297 7776
2297 8126
2297 8344
2297 8651
2297 9222
2297 9968
2298 2716
2298 3977
2298 4183
2298 4243
2298 4272
2298 4339
2298 4858
2298 6412
2298 6493
2298 9241
2299 2784
2299 3109
2299 3169
2299 4181
2299 5315
2299 5477
2299 5694
2299 5959
2299 7050
2299 7650
2299 8079
2300 2541
2300 2966
2300 4469
2300 4570
2300 4703
2300 5169
2300 5344
2300 6085
2300 6504
2300 6782
2300 8652
2300 9190
2300 9646
2300 9726
2301 3014
2301 3317
2301 4017
2301 4774
2301 5371
2301 6632
2301 7180
2301 8285
2301 8377
2301 9064
2301 9155
2302 2458
2302 2584
2302 2863
2302 3651
2302 3759
2302 4089
2302 5055
2302 6263
2302 6879
2302 7771
2302 7953
2302 8534
2302 9133
2303 3680
2303 4601
2303 4643
2303 4881
2303 5650
2303 5652
2303 7544
2303 7725
2303 7888
2303 7999
2303 8171
2303 9581
2303 9780
2304 2324
2304 2362
2304 2953
2304 2963
2304 3001
2304 3633
2304 3652
2304 4101
2304 4192
2304 4356
2304 5301
2304 5320
2304 5455
2304 5606
2304 5839
2304 6173
2304 6414
2304 6713
2304 6858
2304 7078
2304 7851
2304 7979
2304 8226
2304 9350
2305 2932
2305 4127
2305 5599
2305 7448
2305 8909
2305 9433
2305 9822
2305 9955
2306 2410
2306 2699
2306 3297
2306 3547
2306 3800
2306 3938
2306 4471
2306 4724
2306 4788
2306 4801
2306 5158
2306 5378
2306 5433
2306 5794
2306 5874
2306 6317
2306 6524
2306 6646
2306 7156
2306 7320
2306 7393
2306 7684
2306 8117
2306 8271
2306 8388
2306 8491
2306 8519
2306 8859
2306 8990
2306 9221
2306 9445
2306 9949
2307 3649
2307 3687
2307 3731
2307 3898
2307 4146
2307 4373
2307 4525
2307 5154
2307 5805
2307 5891
2307 6660
2307 8133
2307 8800
2308 4121
2308 4149
2308 4265
2308 5256
2308 6157
2308 6635
2308 6674
2308 6780
2308 7645
2308 7650
2308 8676
2308 9545
2308 9561
2309 2458
2309 2897
2309 3878
2309 4338
2309 4431
2309 4595
2309 5010
2309 5640
2309 6325
2309 6336
2309 7079
2309 7578
2309 8438
2309 8742
2310 2572
2310 2774
2310 3174
2310 3239
2310 3388
2310 3472
2310 3795
2310 3848
2310 3925
2310 4192
2310 4250
2310 4565
2310 4726
2310 4789
2310 5602
2310 6203
2310 6227
2310 6622
2310 6671
2310 6887
2310 7191
2310 7306
2310 7481
2310 7770
2310 7880
2310 8017
2310 8123
2310 8652
2310 8669
2310 8807
2310 9018
2310 9046
2311 2513
2311 2780
2311 3305
2311 3722
2311 4127
2311 5094
2311 5808
2311 6185
2311 6236
2311 6513
2311 6957
2311 7190
2311 7362
2311 8058
2311 8574
2311 8948
2311 9167
2312 2675
2312 2955
2312 3308
2312 5078
2312 5400
2312 5881
2312 7240
2312 7265
2312 8236
2312 8716
2312 8834
2313 3168
2313 4018
2313 4389
2313 5526
2313 5616
2313 6128
2313 6435
2313 6946
2313 7082
2313 7214
2313 7266
2313 7474
2313 8299
2313 8928
2313 9018
2313 9035
2314 2624
2314 2706
2314 3140
2314 3229
2314 3348
2314 4122
2314 4475
2314 5269
2314 7549
2314 7604
2314 8620
2314 9601
2314 9746
2314 9999
2315 2626
2315 2683
2315 2964
2315 3045
2315 3139
2315 3402
2315 3808
2315 4419
2315 4691
2315 5161
2315 5394
2315 5414
2315 5465
2315 5594
2315 5672
2315 6421
2315 6605
2315 7291
2315 7496
2315 7758
2315 7844
2315 8025
2315 8494
2315 8575
2315 9141
2315 9180
2315 9202
2315 9279
2316 2514
2316 2828
2316 2915
2316 4719
2316 5224
2316 6697
2316 7011
2316 7331
2316 7482
2316 7545
2316 7599
2316 7744
2316 9681
2316 9934
2317 3999
2317 4883
2317 5067
2317 5129
2317 5819
2317 6416
2317 6487
2317 7515
2317 7546
2317 8923
2317 9380
2317 9462
2318 2490
2318 2718
2318 3167
2318 4377
2318 4441
2318 4487
2318 4815
2318 5281
2318 6509
2318 6564
2318 6876
2318 7134
2318 9374
2318 9939
2319 2632
2319 2734
2319 2867
2319 2959
2319 3814
2319 3985
2319 4916
2319 5034
2319 5530
2319 6176
2319 6615
2319 6669
2319 7067
2319 7312
2319 8669
2319 8740
2319 8923
2319 9117
2320 3722
2320 4931
2320 5041
2320 5100
2320 5154
2320 5875
2320 7038
2320 7867
2320 7948
2320 8127
2320 8459
2320 9467
2320 9501
2320 9656
2320 9927
2321 2368
2321 3156
2321 3758
2321 3814
2321 4917
2321 5316
2321 8059
2321 9300
2322 2594
2322 2895
2322 2915
2322 4308
2322 5032
2322 6062
2322 6460
2322 6543
2322 6925
2322 7028
2322 8100
2322 8111
2322 8737
2322 8859
2322 9028
2322 9378
2323 2502
2323 3060
2323 3147
2323 3963
2323 4177
2323 5020
2323 5566
2323 5580
2323 5716
2323 6673
2323 8656
2323 8778
2324 2407
2324 2510
2324 2868
2324 3163
2324 3181
2324 3222
2324 3386
2324 3485
2324 3706
2324 3872
2324 4309
2324 4369
2324 4507
2324 4667
2324 4735
2324 4832
2324 5453
2324 5490
2324 5598
2324 6185
2324 6225
2324 6767
2324 7330
2324 7356
2324 7473
2324 8542
2324 9006
2324 9259
2324 9521
2324 9575
2325 2464
2325 3201
2325 3453
2325 3574
2325 3742
2325 3777
2325 5720
2325 6139
2325 7078
2325 7874
2325 8243
2325 8535
2325 8631
2326 2477
2326 3585
2326 3651
2326 4081
2326 6188
2326 7007
2326 7683
2326 8008
2326 8025
2326 8320
2326 9710
2327 3831
2327 4564
2327 4886
2327 6135
2327 6364
2327 6980
2327 7124
2327 7234
2327 7253
2327 7287
2327 8037
2327 8387
2327 8411
2327 8693
2327 8724
2327 9165
2327 9461
2328 2625
2328 2896
2328 3291
2328 3718
2328 3858
2328 4368
2328 4674
2328 4785
2328 4808
2328 4945
2328 5205
2328 5218
2328 5457
2328 5648
2328 6166
2328 6221
2328 6227
2328 6343
2328 6804
2328 6835
2328 7780
2328 7833
2328 8045
2328 8066
2328 8688
2328 8933
2328 9342
2328 9430
2328 9489
2328 9712
2328 9774
2328 9792
2328 9889
2329 2693
2329 4655
2329 5407
2329 6044
2329 6201
2329 6218
2329 6413
2329 8868
2329 9412
2329 9823
2330 2429
2330 3142
2330 3347
2330 4066
2330 5652
2330 6335
2330 6527
2330 6641
2330 9204
2331 2592
2331 3121
2331 5338
2331 5797
2331 6896
2331 8026
2331 8889
2331 9351
2331 9492
2331 9570
2331 9700
2332 3235
2332 3317
2332 3553
2332 5578
2332 5630
2332 6234
2332 6741
2332 6826
2332 7757
2332 9147
2332 9265
2332 9571
2333 3022
2333 3207
2333 3262
2333 3751
2333 4374
2333 4398
2333 4991
2333 5577
2333 5693
2333 5857
2333 5963
2333 5970
2333 7900
2333 9967
2334 2736
2334 2842
2334 3014
2334 3304
2334 6469
2334 6790
2334 8377
2334 9143
2334 9383
2334 9506
2334 9568
2335 2369
2335 2526
2335 2684
2335 2711
2335 3267
2335 3307
2335 3333
2335 3619
2335 4258
2335 4355
2335 4545
2335 5886
2335 6514
2335 8121
2335 8448
2335 8814
2335 9647
2336 2832
2336 4962
2336 5346
2336 6263
2336 6987
2336 7083
2336 7399
2336 7643
2336 8186
2336 8977
2336 9346
2336 9662
2336 9822
2337 3216
2337 3649
2337 3699
2337 4998
2337 7559
2337 8006
2337 8223
2337 8967
2337 9188
2337 9211
2338 2673
2338 2824
2338 3449
2338 5247
2338 5292
2338 5419
2338 5538
2338 5842
2338 6228
2338 6525
2338 6632
2338 6840
2338 6867
2338 7129
2338 7267
2338 7751
2338 9042
2338 9043
2338 9351
2339 2615
2339 3786
2339 4238
2339 4521
2339 4743
2339 5673
2339 6423
2339 8160
2339 9278
2339 9420
2340 2776
2340 3844
2340 4000
2340 4717
2340 5056
2340 5195
2340 6012
2340 6525
2340 6804
2340 7218
2340 8181
2340 8414
2340 8415
2340 9497
2340 9997
2341 2721
2341 4550
2341 5193
2341 6489
2341 6567
2341 7858
2341 8160
2341 8467
2341 8552
2341 8694
2342 2547
2342 3263
2342 3813
2342 4574
2342 5321
2342 5910
2342 6488
2342 6910
2342 7030
2342 7327
2342 7602
2342 9798
2342 9904
2343 3218
2343 4625
2343 5257
2343 5448
2343 5697
2343 6222
2343 6430
2343 7296
2343 7597
2343 8271
2343 9064
2344 4056
2344 4281
2344 4638
2344 5337
2344 5980
2344 6084
2344 8698
2344 8933
2345 2841
2345 3096
2345 3110
2345 3327
2345 3366
2345 3570
2345 4132
2345 4203
2345 4294
2345 4470
2345 4489
2345 4547
2345 5016
2345 5434
2345 5725
2345 5818
2345 5947
2345 6038
2345 6430
2345 6435
2345 6443
2345 6716
2345 7172
2345 7493
2345 7523
2345 8268
2345 8518
2345 8536
2345 9001
2345 9040
2345 9049
2345 9101
2345 9203
2345 9297
2345 9561
2345 9717
2345 9953
2346 2923
2346 3451
2346 3637
2346 3651
2346 4558
2346 5150
2346 7807
2346 8505
2346 8753
2346 9077
2346 9423
2347 2388
2347 2395
2347 2547
2347 2982
2347 3128
2347 3208
2347 3566
2347 3876
2347 4194
2347 4410
2347 4453
2347 4578
2347 4899
2347 5301
2347 5467
2347 5707
2347 5923
2347 6056
2347 6318
2347 6618
2347 6785
2347 6878
2347 7075
2347 7306
2347 8672
2347 8828
2347 8890
2347 9026
2347 9250
2347 9384
2347 9657
2348 2400
2348 2582
2348 2754
2348 3429
2348 6328
2348 7756
2348 8323
2348 9162
2348 9167
2348 9257
2348 9292
2349 2550
2349 2897
2349 3015
2349 3182
2349 3842
2349 4751
2349 4771
2349 5493
2349 5988
2349 6600
2349 8379
2349 8448
2349 8808
2350 3909
2350 7491
2350 7828
2350 7850
2350 8832
2350 9822
2351 2927
2351 3437
2351 3921
2351 3928
2351 5311
2351 6746
2351 6895
2351 7461
2351 9209
2352 4525
2352 5468
2352 5482
2352 5603
2352 5916
2352 6364
2352 6809
2352 7406
2352 7880
2352 8529
2353 2668
2353 4135
2353 4689
2353 6717
2353 7473
2353 7625
2353 7889
2353 8468
2353 9357
2353 9426
2354 2895
2354 3075
2354 4466
2354 4590
2354 5063
2354 5239
2354 5895
2354 7730
2355 2773
2355 2810
2355 2908
2355 3283
2355 5446
2355 5532
2355 6047
2355 6258
2355 6399
2355 6559
2355 7131
2355 7457
2355 7620
2355 9189
2355 9483
2355 9507
2356 3631
2356 3742
2356 4270
2356 4906
2356 7757
2356 8435
2356 8649
2356 8993
2356 9135
2357 2601
2357 3176
2357 4482
2357 4561
2357 5040
2357 6430
2357 6747
2357 6976
2357 7486
2357 7536
2357 8279
2357 8372
2357 8574
2357 9064
2357 9256
2358 3244
2358 3275
2358 3668
2358 4326
2358 5145
2358 5347
2358 5620
2358 6021
2358 6328
2358 6796
2358 8076
2358 8403
2358 8650
2358 9369
2358 9375
2358 9600
2358 9604
2358 9885
2359 3409
2359 3899
2359 5785
2359 5801
2359 6066
2359 6877
2359 8604
2359 9908
2359 9911
2359 9912
2360 3036
2360 3145
2360 3861
2360 4289
2360 4680
2360 4705
2360 5739
2360 5807
2360 6114
2360 6387
2360 7160
2360 7553
2360 7657
2360 8346
2360 8393
2360 8836
2360 9390
2360 9561
2361 2429
2361 5114
2361 5159
2361 5333
2361 5501
2361 5757
2361 5856
2361 7674
2361 8245
2361 9048
2361 9231
2361 9553
2361 9647
2361 9724
2362 2369
2362 2487
2362 3215
2362 3253
2362 3365
2362 7591
2362 7893
2362 7935
2362 8456
2362 9046
2362 9285
2363 4336
2363 4887
2363 6489
2363 7453
2363 7873
2363 8601
2363 9316
2363 9432
2363 9450
2364 3031
2364 3457
2364 3584
2364 3600
2364 3723
2364 4086
2364 4599
2364 4617
2364 4622
2364 4955
2364 4989
2364 5038
2364 5524
2364 5909
2364 5948
2364 6001
2364 6112
2364 6122
2364 6225
2364 6781
2364 6956
2364 6984
2364 7275
2364 7383
2364 7528
2364 7870
2364 7892
2364 9175
2365 2535
2365 3963
2365 4745
2365 5394
2365 5634
2365 5656
2365 7841
2365 8235
2365 9024
2365 9423
2365 9501
2366 2889
2366 3269
2366 4619
2366 5508
2366 6253
2366 7002
2366 7682
2366 9095
2366 9335
2366 9522
2367 4206
2367 5153
2367 5709
2367 6150
2367 7220
2367 7778
2367 8159
2367 8951
2368 3710
2368 3758
2368 4917
2368 5446
2368 6464
2368 6553
2368 6864
2368 7581
2368 7649
2368 7758
2368 8055
2368 9240
2369 2871
2369 3019
2369 3665
2369 3862
2369 3876
2369 3978
2369 4240
2369 4500
2369 4625
2369 4637
2369 5153
2369 5658
2369 5842
2369 6058
2369 7063
2369 7264
2369 7330
2369 7504
2369 7556
2369 7932
2369 8186
2369 8230
2369 9273
2369 9347
2370 2722
2370 3410
2370 3905
2370 4048
2370 4490
2370 4995
2370 8079
2370 8981
2371 3539
2371 5227
2371 5493
2371 6664
2371 7591
2371 7673
2372 4032
2372 5088
2372 5490
2372 6409
2372 6661
2372 7154
2372 7686
2372 7737
2372 7807
2372 7872
2372 9824
2372 9919
2373 2584
2373 2973
2373 2983
2373 3295
2373 3658
2373 4462
2373 5105
2373 6253
2373 6589
2373 7999
2373 9758
2374 3584
2374 3876
2374 4549
2374 4943
2374 5502
2374 6166
2374 7228
2374 7497
2374 8250
2375 2951
2375 3581
2375 3747
2375 3948
2375 4462
2375 4974
2375 5219
2375 5467
2375 5798
2375 6075
2375 7732
2375 8104
2375 8941
2376 2867
2376 3136
2376 3236
2376 3496
2376 3704
2376 4134
2376 4290
2376 5282
2376 5993
2376 6678
2376 7232
2376 7396
2376 7803
2376 8115
2376 9530
2377 2724
2377 2760
2377 3336
2377 3536
2377 5933
2377 6016
2377 6077
2377 6228
2377 6249
2377 6576
2377 8464
2377 8936
2377 9816
2378 2403
2378 2917
2378 3449
2378 3593
2378 4233
2378 4400
2378 4797
2378 5339
2378 6614
2378 6940
2378 7463
2379 2449
2379 3973
2379 4406
2379 4556
2379 5558
2379 5824
2379 5886
2379 5891
2379 6625
2379 6665
2379 7065
2379 8354
2379 8536
2379 8818
2380 3721
2380 3783
2380 4187
2380 5682
2380 5827
2380 5873
2380 5876
2380 6218
2380 6379
2380 7110
2380 7573
2380 8149
2380 8388
2380 8514
2380 8653
2380 9043
2380 9555
2380 9669
2381 2893
2381 3108
2381 3687
2381 4108
2381 4583
2381 5321
2381 6441
2381 6782
2381 8912
2381 9057
2381 9428
2382 2664
2382 2788
2382 3049
2382 3789
2382 4177
2382 4189
2382 4271
2382 4317
2382 4529
2382 5033
2382 5209
2382 5270
2382 7356
2382 7992
2382 8157
2382 8346
2382 8451
2382 9464
2382 9878
2382 9979
2383 2770
2383 3594
2383 4074
2383 4782
2383 5606
2383 5708
2383 5743
2383 5987
2383 6679
2383 7226
2383 7693
2383 8034
2383 8595
2383 8629
2383 8833
2383 9974
2384 3265
2384 3991
2384 4283
2384 4705
2384 6213
2384 7306
2384 7605
2384 8197
2384 8560
2384 9532
2384 9636
2385 2686
2385 3917
2385 4209
2385 4242
2385 4691
2385 6228
2385 6883
2385 7186
2385 8492
2385 8874
2385 9117
2385 9227
2385 9605
2386 2746
2386 3505
2386 3763
2386 4550
2386 4573
2386 5486
2386 5498
2386 5636
2386 5773
2386 7187
2386 7249
2386 7491
2386 7549
2386 7809
2386 9107
2386 9794
2386 9858
2387 3453
2387 3645
2387 4146
2387 4247
2387 4834
2387 4944
2387 5280
2387 5436
2387 5535
2387 6755
2387 7326
2387 7412
2387 7424
2387 8873
2387 8982
2388 2683
2388 3349
2388 4938
2388 6110
2388 6276
2388 6586
2388 6861
2388 7224
2388 7955
2388 8832
2388 8996
2389 3550
2389 3721
2389 3772
2389 3799
2389 4300
2389 4393
2389 5639
2389 8539
2389 9325
2389 9827
2390 2420
2390 2590
2390 2822
2390 2970
2390 4382
2390 5276
2390 5310
2390 5336
2390 5763
2390 7137
2390 7633
2390 8155
2391 2554
2391 2560
2391 2768
2391 3544
2391 3790
2391 4300
2391 4424
2391 4736
2391 5049
2391 5052
2391 5260
2391 5825
2391 6004
2391 6618
2391 6764
2391 7021
2391 7071
2391 7181
2391 7695
2391 8169
2391 8721
2391 8818
2391 9406
2392 3031
2392 5304
2392 5769
2392 5932
2392 6369
2392 8727
2393 3649
2393 4457
2393 4619
2393 4799
2393 5047
2393 6461
2393 6654
2393 8650
2393 9095
2393 9335
2393 9362
2393 9561
2394 2565
2394 2694
2394 4113
2394 4569
2394 5165
2394 6569
2394 7449
2394 8458
2394 9024
2394 9041
2395 2612
2395 2846
2395 3802
2395 5982
2395 6629
2395 6744
2395 7201
2395 7402
2395 7574
2395 8405
2395 8634
2395 8734
2395 9429
2396 2635
2396 3208
2396 3346
2396 3392
2396 3911
2396 4131
2396 5985
2396 7309
2396 7646
2396 9079
2396 9378
2396 9407
2397 2820
2397 3202
2397 3541
2397 4138
2397 4448
2397 5231
2397 5323
2397 5325
2397 6125
2397 6394
2397 6998
2397 7642
2397 7660
2397 9968
2398 2705
2398 2757
2398 3568
2398 3630
2398 3756
2398 4104
2398 4160
2398 4339
2398 4473
2398 5762
2398 5985
2398 6512
2398 7245
2398 8433
2398 9517
2398 9636
2399 3492
2399 4879
2399 5189
2399 6098
2399 6624
2399 6763
2399 6985
2399 8063
2399 8238
2400 2754
2400 2934
2400 3429
2400 3798
2400 4798
2400 5534
2400 5782
2400 6013
2400 6173
2400 6688
2400 6912
2400 7059
2400 7753
2400 7756
2400 8578
2400 8652
2400 8774
2400 9162
2400 9456
2400 9680
2400 9878
2401 2924
2401 2946
2401 3160
2401 3561
2401 3711
2401 4706
2401 4852
2401 5413
2401 8123
2401 8182
2401 8413
2401 9971
2402 3792
2402 3935
2402 3956
2402 4166
2402 4407
2402 5174
2402 7109
2402 7470
2402 7503
2402 8814
2402 9439
2402 9499
2403 4164
2403 4704
2403 4797
2403 5455
2403 6399
2403 7463
2403 7656
2403 9208
2403 9483
2403 9798
2404 2846
2404 3072
2404 3215
2404 3999
2404 4639
2404 6563
2404 7429
2404 7510
2404 7592
2404 7980
2404 8346
2404 8577
2404 9343
2404 9734
2405 2533
2405 3285
2405 3424
2405 4814
2405 5134
2405 5505
2405 6398
2405 6404
2405 6521
2405 8868
2406 2858
2406 2945
2406 3077
2406 3726
2406 4227
2406 6428
2406 7216
2406 7974
2407 3464
2407 3499
2407 4670
2407 4804
2407 5025
2407 6541
2407 7075
2407 7382
2407 7560
2407 7858
2407 8835
2407 9061
2407 9446
2408 3166
2408 3550
2408 4518
2408 4679
2408 5064
2408 5936
2408 5955
2408 7287
2408 7460
2408 7485
2408 8720
2408 8830
2409 2467
2409 2696
2409 3409
2409 3559
2409 3649
2409 5365
2409 5936
2409 5971
2409 7053
2409 7914
2409 7969
2409 8043
2409 8687
2409 9125
2409 9521
2410 2944
2410 4085
2410 4425
2410 4700
2410 4998
2410 5501
2410 6570
2410 7006
2410 7840
2411 3972
2411 4159
2411 5540
2411 6467
2411 6496
2411 6521
2411 6933
2411 7635
2411 7741
2411 8641
2411 9125
2411 9681
2412 4570
2412 4638
2412 5450
2412 6710
2412 7313
2412 8019
2412 9024
2412 9793
2413 3091
2413 3159
2413 4108
2413 4911
2413 6533
2413 6722
2413 7529
2413 8312
2413 8894
2413 9357
2414 2777
2414 2826
2414 3232
2414 3815
2414 3820
2414 4993
2414 5095
2414 5103
2414 5452
2414 6375
2414 7945
2415 2567
2415 2570
2415 2612
2415 2915
2415 4757
2415 4804
2415 4815
2415 5103
2415 5330
2415 5785
2415 6632
2415 7660
2415 7742
2415 8619
2415 9513
2415 9566
2415 9671
2416 3161
2416 4884
2416 5114
2416 5764
2416 6246
2416 6322
2416 6399
2416 6821
2416 7766
2416 7848
2416 7893
2416 9278
2416 9361
2416 9476
2416 9977
2417 3310
2417 3500
2417 3943
2417 4322
2417 4817
2417 5760
2417 6014
2417 6079
2417 6273
2417 7009
2417 7208
2417 7376
2417 9210
2417 9669
2418 2709
2418 2885
2418 3052
2418 3858
2418 4821
2418 5146
2418 5249
2418 5436
2418 5521
2418 5586
2418 5857
2418 6441
2418 6557
2418 6628
2418 6633
2418 6994
2418 7053
2418 7161
2418 7469
2418 7813
2418 7873
2418 7958
2418 8059
2418 8288
2418 8343
2418 8812
2418 8921
2418 9234
2418 9269
2418 9597
2418 9728
2418 9925
2419 2860
2419 2929
2419 3670
2419 5459
2419 6649
2419 7382
2419 8032
2419 8200
2419 8513
2419 9539
2420 4863
2420 5941
2420 6832
2420 7379
2420 9799
2421 3593
2421 4045
2421 4288
2421 4722
2421 4956
2421 5195
2421 5382
2421 5624
2421 5932
2421 6259
2421 6387
2421 7720
2421 8958
2421 9426
2421 9646
2422 2434
2422 3133
2422 3227
2422 3265
2422 3573
2422 5838
2422 6147
2422 7267
2422 8718
2422 9052
2422 9068
2422 9365
2423 3456
2423 4018
2423 6400
2423 6823
2423 7194
2423 7483
2423 7582
2423 7714
2423 9008
2424 4124
2424 4989
2424 5531
2424 5850
2424 6139
2424 7153
2424 7168
2424 7714
2424 7947
2424 8368
2424 8567
2424 8634
2425 2449
2425 2870
2425 2970
2425 4003
2425 4235
2425 5024
2425 5955
2425 5969
2425 6076
2425 9319
2425 9899
2426 2630
2426 3862
2426 4146
2426 6199
2426 6437
2426 6817
2426 7151
2426 8849
2426 9426
2426 9449
2426 9820
2427 5095
2427 5696
2427 5764
2427 5776
2427 6449
2427 8195
2427 8197
2427 8928
2427 9339
2427 9599
2428 2464
2428 2637
2428 2992
2428 3307
2428 3565
2428 4274
2428 4303
2428 4417
2428 4798
2428 5765
2428 6271
2428 6378
2428 6432
2428 6652
2428 6797
2428 7321
2428 7553
2428 7677
2428 7802
2428 8233
2428 8487
2428 8565
2428 8882
2428 9090
2428 9206
2428 9451
2428 9826
2429 2590
2429 2879
2429 2897
2429 3542
2429 3644
2429 3735
2429 3852
2429 4220
2429 4265
2429 4344
2429 4565
2429 4734
2429 5374
2429 6096
2429 6684
2429 7371
2429 7421
2429 7570
2429 7744
2429 7980
2429 8132
2429 8180
2429 8254
2429 8941
2429 9303
2429 9327
2429 9357
2429 9491
2429 9730
2430 3467
2430 4043
2430 5146
2430 5966
2430 6480
2430 6649
2430 8375
2430 8789
2430 9414
2430 9551
2430 9762
2431 5071
2431 6632
2431 6898
2431 7222
2431 8274
2431 8819
2432 2882
2432 3809
2432 3819
2432 4545
2432 4566
2432 4868
2432 5336
2432 6393
2432 6833
2432 8221
2432 8303
2432 8421
2432 9203
2432 9668
2433 2667
2433 6189
2433 6559
2433 6712
2433 6856
2433 8024
2433 9171
2433 9206
2434 2945
2434 3042
2434 3815
2434 4248
2434 4466
2434 5083
2434 5272
2434 5880
2434 5895
2434 6391
2434 6800
2434 7890
2434 7937
2434 7944
2434 7970
2434 8013
2434 8313
2434 8943
2434 9424
2434 9876
2434 9996
2435 3107
2435 3208
2435 3517
2435 3906
2435 4928
2435 5275
2435 5712
2435 6010
2435 6660
2435 8120
2435 8167
2435 9097
2435 9847
2436 3420
2436 3466
2436 3735
2436 3818
2436 4453
2436 4471
2436 6388
2436 6652
2436 7234
2436 8042
2436 8142
2436 8649
2437 2902
2437 3050
2437 4466
2437 7890
2437 8392
2437 8675
2437 9093
2437 9130
2437 9293
2437 9996
2438 2844
2438 3039
2438 3172
2438 4115
2438 4525
2438 4855
2438 5272
2438 5328
2438 5607
2438 6541
2438 6885
2438 6922
2438 7220
2438 7560
2438 8157
2438 8619
2438 8965
2438 9177
2438 9723
2439 4541
2439 4901
2439 5163
2439 5980
2439 6051
2439 6118
2439 6974
2439 7196
2439 7418
2439 8710
2439 8808
2439 9094
2439 9117
2439 9530
2440 2869
2440 4133
2440 5108
2440 5256
2440 5314
2440 5594
2440 7613
2440 7990
2440 8969
2440 9517
2441 3555
2441 3924
2441 4386
2441 4619
2441 4999
2441 5402
2441 5927
2441 6410
2441 7855
2441 8323
2441 9160
2441 9538
2441 9928
2442 3080
2442 3484
2442 6985
2442 8183
2442 8482
2442 9791
2443 2543
2443 2831
2443 3068
2443 3171
2443 3876
2443 4048
2443 4329
2443 4803
2443 5878
2443 6577
2443 6835
2443 6995
2443 7848
2443 9077
2444 2674
2444 3010
2444 3442
2444 3565
2444 4326
2444 5052
2444 5882
2444 5985
2444 6256
2444 6737
2444 7095
2444 8341
2444 8388
2444 8970
2444 9517
2445 3016
2445 3482
2445 4317
2445 4574
2445 4680
2445 5852
2445 6219
2445 6659
2445 6765
2445 7263
2445 7279
2445 7628
2445 9425
2445 9599
2445 9790
2446 2953
2446 3281
2446 3294
2446 4671
2446 4859
2446 5650
2446 5699
2446 5854
2446 8404
2446 8770
2446 9383
2446 9403
2447 3722
2447 3829
2447 4997
2447 6085
2447 7386
2447 9541
2447 9920
2448 2542
2448 3097
2448 3140
2448 3652
2448 4132
2448 6064
2448 7037
2448 7374
2448 8852
2448 9906
2449 2970
2449 3049
2449 3894
2449 4003
2449 4455
2449 4485
2449 4518
2449 4734
2449 7173
2449 7674
2449 7698
2449 8475
2449 8991
2449 9311
2449 9903
2450 2895
2450 3075
2450 3275
2450 3344
2450 3875
2450 4143
2450 4752
2450 5181
2450 5355
2450 5912
2450 5990
2450 6500
2450 6697
2450 7439
2450 7634
2450 8231
2450 8793
2450 8863
2450 9560
2450 9691
2451 2711
2451 3119
2451 3355
2451 3390
2451 5079
2451 7474
2451 8301
2451 8615
2451 9001
2451 9649
2452 2611
2452 2691
2452 2950
2452 3287
2452 3310
2452 3569
2452 3694
2452 3827
2452 4114
2452 4836
2452 5189
2452 5214
2452 5226
2452 5372
2452 6994
2452 7079
2452 7107
2452 7208
2452 7714
2452 8495
2452 8878
2452 9456
2452 9801
2452 9929
2453 3060
2453 3207
2453 3324
2453 5245
2453 5702
2453 5709
2453 5781
2453 5805
2453 6306
2453 7050
2453 9098
2453 9403
2453 9464
2454 2584
2454 2729
2454 3950
2454 3988
2454 4620
2454 4761
2454 4814
2454 4966
2454 5309
2454 5386
2454 6149
2454 6669
2454 6684
2454 6745
2454 7045
2454 7951
2454 8298
2455 4766
2455 4993
2455 6526
2455 6665
2455 7467
2455 7480
2455 7745
2455 8161
2455 8258
2455 8406
2455 8846
2455 9040
2456 3283
2456 3536
2456 3558
2456 3600
2456 3657
2456 3714
2456 3767
2456 3885
2456 3952
2456 4471
2456 4768
2456 5225
2456 5237
2456 5553
2456 5819
2456 5821
2456 6284
2456 6329
2456 6505
2456 6792
2456 6800
2456 7039
2456 7067
2456 7109
2456 7421
2456 7639
2456 7863
2456 7937
2456 8365
2456 8482
2456 9005
2456 9797
2456 9879
2457 2552
2457 3270
2457 5802
2457 5910
2457 7545
2457 7661
2457 8872
2457 9949
2458 3464
2458 3969
2458 4765
2458 4962
2458 5098
2458 5129
2458 6360
2458 6988
2458 7318
2458 7396
2458 8326
2458 8368
2458 8549
2458 8669
2458 9208
2458 9527
2458 9555
2458 9686
2458 9743
2458 9755
2458 9879
2459 2588
2459 2946
2459 3675
2459 3741
2459 3918
2459 4230
2459 5143
2459 5808
2459 5840
2459 6185
2459 6317
2459 6525
2459 7239
2459 7279
2459 7417
2459 7505
2459 7525
2459 8172
2459 9053
2459 9155
2460 2994
2460 6609
2460 7140
2460 7154
2460 7791
2460 8679
2460 9542
2461 2632
2461 2685
2461 3224
2461 3447
2461 3576
2461 3936
2461 4019
2461 4233
2461 4342
2461 4616
2461 4828
2461 5284
2461 5415
2461 5670
2461 5784
2461 5836
2461 6241
2461 6435
2461 6515
2461 6704
2461 6860
2461 7218
2461 7914
2461 8072
2461 8073
2461 8318
2461 8356
2461 8377
2461 8576
2461 9543
2461 9659
2462 2688
2462 2826
2462 3315
2462 3446
2462 4086
2462 4138
2462 5522
2462 6007
2462 6568
2462 6864
2462 7559
2462 9245
2463 2936
2463 5100
2463 5829
2463 6132
2463 6489
2463 6820
2463 7763
2463 7974
2463 8393
2463 8901
2464 3095
2464 3717
2464 4424
2464 4896
2464 5280
2464 5317
2464 5480
2464 5572
2464 5629
2464 5937
2464 6426
2464 6779
2464 7730
2464 8000
2464 8394
2464 8401
2464 8652
2464 9440
2465 3755
2465 4022
2465 4397
2465 4607
2465 4867
2465 5396
2465 5730
2465 6646
2465 6756
2465 6903
2466 2471
2466 2609
2466 2692
2466 3119
2466 3355
2466 3600
2466 3649
2466 3864
2466 4142
2466 4321
2466 4540
2466 4909
2466 5122
2466 5152
2466 5336
2466 5471
2466 5521
2466 5820
2466 5844
2466 5969
2466 5980
2466 7327
2466 7573
2466 8344
2466 8537
2466 8581
2466 8650
2466 9281
2466 9395
2466 9410
2466 9519
2466 9950
2467 2605
2467 4129
2467 4290
2467 5069
2467 5266
2467 5535
2467 5916
2467 6068
2467 6196
2467 6372
2467 6536
2467 6660
2467 6747
2467 7986
2467 8112
2467 9024
2467 9262
2468 2767
2468 3298
2468 4749
2468 6573
2468 7628
2468 8659
2468 8818
2468 9568
2468 9656
2468 9989
2469 2780
2469 2994
2469 3000
2469 4637
2469 4668
2469 5096
2469 5359
2469 5798
2469 6098
2469 6481
2469 7996
2469 9247
2469 9533
2469 9556
2469 9574
2469 9642
2469 9997
2470 2686
2470 2863
2470 3261
2470 4460
2470 4861
2470 5470
2470 5931
2470 5947
2470 6846
2470 7386
2470 8265
2470 8538
2470 8647
2470 8768
2470 8820
2471 2720
2471 3561
2471 4058
2471 5068
2471 5927
2471 8421
2471 8952
2471 9526
2472 2940
2472 3452
2472 3707
2472 4164
2472 4476
2472 5380
2472 5836
2472 6229
2472 7852
2472 9025
2472 9555
2472 9595
2472 9614
2473 2896
2473 4211
2473 6151
2473 6255
2473 6685
2473 7059
2473 7235
2473 7310
2473 7464
2473 7745
2473 8071
2473 8307
2473 9022
2473 9231
2474 4308
2474 5277
2474 6068
2474 6831
2474 7023
2474 7028
2474 7271
2474 7784
2474 8030
2474 8886
2475 3370
2475 4407
2475 6544
2475 7495
2475 7898
2475 8266
2475 8917
2476 3086
2476 3438
2476 4142
2476 5093
2476 7246
2476 7757
2476 8109
2476 8648
2477 4802
2477 5137
2477 5385
2477 5547
2477 7305
2477 7466
2477 7528
2477 8373
2477 8639
2477 8888
2478 2826
2478 2983
2478 3230
2478 3449
2478 4646
2478 4652
2478 4698
2478 4989
2478 7974
2478 8527
2478 8568
2479 3118
2479 3208
2479 3245
2479 3803
2479 5490
2479 5504
2479 5695
2479 6265
2479 6727
2479 8516
2479 9883
2480 3913
2480 3944
2480 6745
2480 7483
2480 7694
2480 7853
2480 8207
2480 8923
2480 9130
2480 9153
2481 3083
2481 3205
2481 3398
2481 3607
2481 4029
2481 4346
2481 4774
2481 6163
2481 8592
2481 9359
2481 9544
2481 9985
2482 2745
2482 4390
2482 4405
2482 4703
2482 6108
2482 6421
2482 7083
2482 7464
2482 7861
2482 8121
2482 8211
2482 8746
2482 8982
2482 9170
2482 9631
2482 9956
2483 2849
2483 3491
2483 4176
2483 4232
2483 4313
2483 6650
2483 6922
2483 7341
2483 7858
2483 8015
2483 9207
2483 9539
2484 2538
2484 3401
2484 3987
2484 4602
2484 7333
2484 7678
2484 8887
2484 9004
2484 9282
2485 3129
2485 4505
2485 4859
2485 5069
2485 5650
2485 5854
2485 7289
2485 7840
2485 7938
2485 7959
2485 9058
2485 9134
2485 9360
2486 2529
2486 2704
2486 2785
2486 3088
2486 3603
2486 4189
2486 4357
2486 4776
2486 6042
2486 6167
2486 6390
2486 6601
2486 7113
2486 7280
2486 7565
2486 7568
2486 8175
2486 8545
2486 8661
2486 8922
2486 9332
2486 9824
2487 2575
2487 2669
2487 3469
2487 3700
2487 3799
2487 4085
2487 4287
2487 4305
2487 5022
2487 5261
2487 5609
2487 5658
2487 6408
2487 6431
2487 6490
2487 6805
2487 7501
2487 7788
2487 8236
2487 8265
2487 8875
2487 9276
2487 9706
2487 9865
2487 9958
2488 3510
2488 3861
2488 3919
2488 3960
2488 4025
2488 4146
2488 4860
2488 5036
2488 5072
2488 5577
2488 5887
2488 6282
2488 6732
2488 7445
2488 7635
2488 8738
2488 9452
2488 9547
2489 3493
2489 3610
2489 4091
2489 4181
2489 4487
2489 5145
2489 5672
2489 7052
2489 8710
2490 2792
2490 3098
2490 3806
2490 4447
2490 4851
2490 4968
2490 5057
2490 5087
2490 5088
2490 5974
2490 6011
2490 7324
2490 7414
2490 7483
2490 7646
2490 7846
2490 8058
2490 9009
2490 9029
2490 9296
2490 9752
2491 2588
2491 2889
2491 3240
2491 3246
2491 3428
2491 3767
2491 4453
2491 4501
2491 4983
2491 5576
2491 5961
2491 6132
2491 6244
2491 6771
2491 7286
2491 7985
2491 9687
2492 2628
2492 2691
2492 2727
2492 2856
2492 2902
2492 3026
2492 3407
2492 3508
2492 3990
2492 4681
2492 4963
2492 4990
2492 5344
2492 5466
2492 5699
2492 5704
2492 5721
2492 5974
2492 6025
2492 6070
2492 6271
2492 6348
2492 6524
2492 6852
2492 7041
2492 7164
2492 7656
2492 8019
2492 8098
2492 8718
2492 8732
2492 9017
2492 9211
2492 9463
2492 9833
2492 9875
2493 2588
2493 2792
2493 4005
2493 4329
2493 4592
2493 4813
2493 4893
2493 5112
2493 5273
2493 5301
2493 5528
2493 5872
2493 5990
2493 6173
2493 6499
2493 6671
2493 6781
2493 6849
2493 7025
2493 7165
2493 7188
2493 7556
2493 7609
2493 7972
2493 8145
2493 8162
2493 8431
2493 8501
2493 8583
2493 8913
2493 9185
2493 9197
2493 9530
2493 9570
2493 9675
2493 9825
2494 3005
2494 3012
2494 3615
2494 3687
2494 4910
2494 5502
2494 5855
2494 6060
2494 6089
2494 6197
2494 6391
2494 6517
2494 6566
2494 6678
2494 7430
2494 7816
2494 8192
2494 8274
2494 8318
2494 8345
2494 8945
2494 9970
2495 2538
2495 2707
2495 3168
2495 3246
2495 3445
2495 4819
2495 5421
2495 5711
2495 6026
2495 6068
2495 6346
2495 6481
2495 6824
2495 6848
2495 7329
2495 8242
2495 9689
2496 2863
2496 3993
2496 4103
2496 4135
2496 4302
2496 4323
2496 4354
2496 4478
2496 4621
2496 4817
2496 5167
2496 5318
2496 5341
2496 6180
2496 6200
2496 6209
2496 6270
2496 6802
2496 6865
2496 7139
2496 7612
2496 8080
2496 8390
2496 9526
2496 9678
2497 3319
2497 3793
2497 4173
2497 5009
2497 5167
2497 6017
2497 6982
2497 7279
2497 8124
2497 9246
2498 2669
2498 2759
2498 3404
2498 3639
2498 3669
2498 3725
2498 4473
2498 4812
2498 5137
2498 5366
2498 5439
2498 5873
2498 5907
2498 6035
2498 6226
2498 7738
2498 8204
2498 8957
2498 9136
2498 9908
2499 2797
2499 3957
2499 4951
2499 5755
2499 6007
2499 6155
2499 6902
2499 7672
2499 8144
2499 8827
2499 8991
2499 9370
2499 9433
2500 2727
2500 3441
2500 3697
2500 4824
2500 5156
2500 6039
2500 6837
2500 6945
2500 7294
2500 8137
2500 8355
2500 8900
2500 8950
2500 9258
2500 9792
2501 2826
2501 2902
2501 2912
2501 3413
2501 4533
2501 5505
2501 5940
2501 6020
2501 6867
2501 7135
2501 7603
2501 8050
2501 8526
2502 4176
2502 4177
2502 5566
2502 5716
2502 5865
2502 6673
2502 8374
2502 8389
2502 9136
2502 9719
2502 9847
2503 2674
2503 3271
2503 4416
2503 4918
2503 5053
2503 5766
2503 7335
2503 8348
2503 9527
2504 3066
2504 3555
2504 3816
2504 4861
2504 5184
2504 6438
2504 6795
2504 7448
2504 8062
2504 8276
2504 8426
2504 8629
2505 2885
2505 4451
2505 5093
2505 5238
2505 5257
2505 5827
2505 6404
2505 8019
2505 8312
2505 8622
2505 9092
2506 2962
2506 4551
2506 5510
2506 5578
2506 6228
2506 6477
2506 7264
2506 8564
2506 8603
2506 8847
2506 8974
2506 9121
2507 3306
2507 3500
2507 4671
2507 5056
2507 5099
2507 5122
2507 5489
2507 6123
2507 6443
2507 7487
2507 7577
2507 7999
2507 8453
2507 9482
2507 9674
2508 2629
2508 2677
2508 2822
2508 3151
2508 3366
2508 4309
2508 5138
2508 5906
2508 5979
2508 5988
2508 6231
2508 7594
2508 7944
2508 8243
2508 8824
2508 8887
2508 8979
2508 9128
2508 9608
2508 9643
2508 9855
2509 2898
2509 4586
2509 6820
2509 7553
2509 7762
2509 8156
2509 9292
2509 9444
2510 3222
2510 4577
2510 4735
2510 5453
2510 5625
2510 7135
2510 9006
2510 9808
2510 9862
2511 4263
2511 4890
2511 6509
2511 6964
2511 7122
2511 7574
2511 7589
2511 8155
2511 8342
2511 8496
2511 8538
2512 2622
2512 2929
2512 3277
2512 3315
2512 3348
2512 3421
2512 3664
2512 3761
2512 3783
2512 3835
2512 3984
2512 4407
2512 4550
2512 5344
2512 5881
2512 7195
2512 7761
2512 7766
2512 7911
2512 7957
2512 8167
2512 8395
2512 8459
2512 8670
2512 8695
2512 8866
2512 9203
2512 9300
2512 9712
2512 9748
2513 2728
2513 3854
2513 4127
2513 4517
2513 5540
2513 5808
2513 6421
2513 6571
2513 6898
2513 7190
2513 7362
2513 8125
2513 9669
2513 9678
2513 9833
2514 3923
2514 4188
2514 4623
2514 4770
2514 4816
2514 5005
2514 5215
2514 5275
2514 5343
2514 5588
2514 5793
2514 6811
2514 6915
2514 7057
2514 7547
2514 7696
2514 7803
2514 7865
2514 8049
2514 8445
2514 8513
2514 8840
2514 9214
2514 9613
2514 9696
2514 9901
2515 2728
2515 3573
2515 3707
2515 4509
2515 4532
2515 4833
2515 5254
2515 5510
2515 6585
2515 6697
2515 7023
2515 7154
2515 8018
2515 8115
2515 8384
2515 8696
2515 8760
2516 3718
2516 4169
2516 4511
2516 5110
2516 5150
2516 5584
2516 6878
2516 7569
2516 8446
2516 8472
2516 8948
2517 2830
2517 2964
2517 3440
2517 3679
2517 4224
2517 4526
2517 5312
2517 5574
2517 5603
2517 7759
2517 8074
2517 9866
2518 3202
2518 3694
2518 3818
2518 4036
2518 5699
2518 5732
2518 6700
2518 6957
2518 7029
2518 8215
2518 8538
2519 2886
2519 2922
2519 4723
2519 5681
2519 6038
2519 6091
2519 6629
2519 6865
2519 7172
2519 7980
2519 9070
2519 9188
2519 9450
2519 9837
2520 2837
2520 3196
2520 3351
2520 3758
2520 5558
2520 6055
2520 6321
2520 7408
2520 7539
2520 8116
2520 9450
2521 5115
2521 5571
2521 6189
2521 8072
2521 8431
2521 8625
2521 9630
2521 9956
2522 2609
2522 3324
2522 4503
2522 4956
2522 5446
2522 7503
2522 7582
2522 7590
2522 7715
2522 8271
2522 8906
2522 9200
2523 2544
2523 3514
2523 4664
2523 5173
2523 5456
2523 5512
2523 5541
2523 5776
2523 6124
2523 7676
2523 9254
2523 9674
2524 3849
2524 3995
2524 4020
2524 5453
2524 5540
2524 7081
2524 7970
2524 8260
2524 8283
2524 8358
2524 8759
2524 8829
2524 8861
2524 9234
2525 3934
2525 4443
2525 5609
2525 6100
2525 6131
2526 3036
2526 3333
2526 5407
2526 6831
2526 7114
2526 8001
2526 8121
2526 8375
2526 8886
2526 9512
2527 3536
2527 3915
2527 5236
2527 5373
2527 5546
2527 5553
2527 6332
2527 9132
2527 9581
2527 9674
2528 2626
2528 3078
2528 4523
2528 4601
2528 4676
2528 5202
2528 5493
2528 5907
2528 6419
2528 6804
2528 7644
2528 7659
2528 7891
2528 8205
2528 8344
2528 8349
2528 8670
2529 2556
2529 3303
2529 3355
2529 3488
2529 3787
2529 4111
2529 4736
2529 5027
2529 5762
2529 5881
2529 5914
2529 6473
2529 6753
2529 7341
2529 7612
2529 7665
2529 7898
2529 8026
2529 8546
2529 9225
2529 9332
2529 9581
2530 2890
2530 4215
2530 4310
2530 4686
2530 4789
2530 4992
2530 6295
2530 6302
2530 7567
2530 7811
2531 2576
2531 2700
2531 3506
2531 4128
2531 4240
2531 5004
2531 5278
2531 5955
2531 6897
2531 7624
2531 7806
2531 8896
2531 9631
2532 2624
2532 3445
2532 4793
2532 5023
2532 5033
2532 5199
2532 5218
2532 5730
2532 6026
2532 6949
2532 7738
2532 8115
2532 8221
2532 8568
2532 9458
2532 9822
2533 3335
2533 4395
2533 4702
2533 5134
2533 5540
2533 6630
2533 6726
2533 7451
2533 7848
2533 8378
2533 8760
2533 9801
2534 3952
2534 4279
2534 4878
2534 4987
2534 5218
2534 5965
2534 6217
2534 9648
2535 2548
2535 3223
2535 3897
2535 4470
2535 4643
2535 4745
2535 4818
2535 5421
2535 5634
2535 5656
2535 6393
2535 6699
2535 7801
2535 8047
2535 9151
2535 9359
2535 9501
2535 9899
2535 9973
2536 2739
2536 3916
2536 4103
2536 4113
2536 5067
2536 5269
2536 5373
2536 7164
2536 8318
2536 9993
2537 2883
2537 4276
2537 5352
2537 5654
2537 5683
2537 8036
2537 8642
2537 9065
2537 9185
2537 9308
2537 9463
2538 2677
2538 2692
2538 3246
2538 4123
2538 4222
2538 5204
2538 5421
2538 5526
2538 5711
2538 5939
2538 6330
2538 6771
2538 7233
2538 7489
2538 7659
2538 7840
2538 8571
2538 9689
2539 2952
2539 3451
2539 3556
2539 4509
2539 4594
2539 5365
2539 5691
2539 7952
2539 8049
2539 8135
2539 8581
2539 8678
2539 9623
2540 2713
2540 4341
2540 4427
2540 4727
2540 4878
2540 5095
2540 5615
2540 6707
2540 7789
2540 7890
2540 8635
2541 2648
2541 3150
2541 3307
2541 3445
2541 3556
2541 3854
2541 3879
2541 4380
2541 4661
2541 4698
2541 5673
2541 5689
2541 6064
2541 6973
2541 7054
2541 7487
2541 7839
2541 8036
2541 9088
2541 9117
2541 9142
2541 9776
2541 9914
2542 2614
2542 3196
2542 3436
2542 5159
2542 7083
2542 7626
2542 7805
2542 8030
2542 8115
2542 8460
2543 4146
2543 4187
2543 4586
2543 4850
2543 5584
2543 5600
2543 6199
2543 7750
2543 8003
2543 8683
2543 9415
2543 9426
2543 9968
2544 2974
2544 3076
2544 3084
2544 3111
2544 3205
2544 3287
2544 3514
2544 3856
2544 4185
2544 4653
2544 4678
2544 4752
2544 4969
2544 5061
2544 5164
2544 5173
2544 5235
2544 5505
2544 5566
2544 6494
2544 6752
2544 6927
2544 7271
2544 7337
2544 7443
2544 7746
2544 8150
2544 8307
2544 8347
2544 9189
2544 9207
2544 9247
2544 9647
2544 9771
2545 2601
2545 2827
2545 4437
2545 6678
2545 6842
2545 9229
2546 3215
2546 3228
2546 3235
2546 3379
2546 3691
2546 5056
2546 6800
2546 6936
2546 7041
2546 7537
2546 7721
2546 7847
2546 8180
2546 9076
2546 9889
2547 2938
2547 3632
2547 4624
2547 4813
2547 5042
2547 5366
2547 5620
2547 6619
2547 8736
2547 9909
2548 2800
2548 3948
2548 4174
2548 4727
2548 4743
2548 5001
2548 5017
2548 5806
2548 6351
2548 6467
2548 8167
2548 9035
2548 9122
2549 3859
2549 3921
2549 4294
2549 6198
2549 6321
2549 7063
2549 7485
2549 8448
2549 9394
2549 9655
2550 3142
2550 3451
2550 4802
2550 5232
2550 5345
2550 5622
2550 5691
2550 5834
2550 5853
2550 5877
2550 6297
2550 6654
2550 6919
2550 6991
2550 7602
2550 7784
2550 8085
2550 8310
2550 8771
2550 8862
2550 9083
2550 9273
2550 9356
2550 9450
2550 9502
2550 9559
2550 9684
2551 2764
2551 3495
2551 4629
2551 4865
2551 4923
2551 5683
2551 6318
2551 7045
2551 7108
2551 7618
2551 8569
2551 9218
2551 9538
2551 9822
2551 9888
2552 3647
2552 5802
2552 5910
2552 6516
2552 8587
2553 2770
2553 2791
2553 5566
2553 5639
2553 6133
2553 7097
2553 7156
2553 7814
2553 7950
2554 2925
2554 3466
2554 4651
2554 5761
2554 6132
2554 6800
2554 8040
2554 9234
2554 9340
2554 9662
2555 2590
2555 2608
2555 2730
2555 2856
2555 2894
2555 3150
2555 3178
2555 3373
2555 3722
2555 4353
2555 4961
2555 5417
2555 5577
2555 5622
2555 6676
2555 7161
2555 7500
2555 7783
2555 7942
2555 8500
2555 8550
2555 8791
2555 9713
2555 9770
2556 4837
2556 6242
2556 6408
2556 6636
2556 6794
2556 7505
2556 7613
2556 8901
2556 9502
2557 3661
2557 4116
2557 4520
2557 5721
2557 7226
2557 7755
2557 8279
2557 8509
2557 9758
2558 4582
2558 4795
2558 4828
2558 6287
2558 6623
2558 6888
2558 7330
2558 7451
2558 8023
2558 8322
2558 9051
2559 2619
2559 3326
2559 3871
2559 4240
2559 4568
2559 4613
2559 5345
2559 5519
2559 5667
2559 6449
2559 6546
2559 6667
2559 7255
2559 7528
2559 7941
2559 8019
2559 9443
2560 3648
2560 4258
2560 4579
2560 5638
2560 6055
2560 7408
2560 7838
2560 8343
2560 8452
2560 8459
2561 3249
2561 3356
2561 3382
2561 4445
2561 4643
2561 5201
2561 5801
2561 6329
2561 6614
2561 6857
2561 7692
2561 8144
2561 8913
2561 8960
2561 9761
2562 2574
2562 2587
2562 2611
2562 2814
2562 3347
2562 4193
2562 4479
2562 5335
2562 6830
2562 6956
2562 7166
2562 7231
2562 7385
2562 7410
2562 7762
2562 8156
2562 8735
2562 9210
2563 2745
2563 3744
2563 3804
2563 4106
2563 5741
2563 6714
2563 7571
2563 7679
2563 8347
2564 2883
2564 4218
2564 5153
2564 5751
2564 7220
2564 8085
2564 8159
2564 8951
2565 3102
2565 3351
2565 3581
2565 3873
2565 4794
2565 5186
2565 6013
2565 6520
2565 6641
2565 9394
2565 9643
2565 9873
2566 2715
2566 2729
2566 3427
2566 3565
2566 3604
2566 4533
2566 5503
2566 6091
2566 8029
2566 8310
2567 3644
2567 4275
2567 4739
2567 4856
2567 5134
2567 5359
2567 5494
2567 6008
2567 6781
2567 7379
2567 7429
2567 7473
2567 8307
2567 8732
2567 9001
2567 9910
2568 3760
2568 4457
2568 4948
2568 5205
2568 5704
2568 6613
2568 6959
2568 7654
2568 8718
2569 3641
2569 4446
2569 5895
2569 6055
2569 6075
2569 6126
2569 6416
2569 6568
2569 6583
2569 7020
2569 7142
2569 7156
2569 7642
2569 7734
2569 7869
2569 7967
2569 8139
2569 8389
2569 8565
2569 8940
2569 9593
2569 9724
2570 2598
2570 2612
2570 2762
2570 2857
2570 3014
2570 3507
2570 4186
2570 4285
2570 5698
2570 6225
2570 7154
2570 7631
2570 8605
2570 9218
2570 9513
2571 2658
2571 2749
2571 2974
2571 3493
2571 3814
2571 4195
2571 4268
2571 4973
2571 5205
2571 5356
2571 5375
2571 5881
2571 6306
2571 6519
2571 6544
2571 6618
2571 7069
2571 7429
2571 7467
2571 7828
2571 7890
2571 7944
2571 8034
2571 8048
2571 8112
2571 8216
2571 8447
2571 8568
2571 8627
2571 8659
2571 8695
2571 9526
2571 9596
2571 9737
2572 4754
2572 5469
2572 5776
2572 5932
2572 6480
2572 8497
2573 2634
2573 2654
2573 3608
2573 3682
2573 3790
2573 4026
2573 5158
2573 5290
2573 5475
2573 5962
2573 6655
2573 8446
2573 8951
2574 2587
2574 2591
2574 2814
2574 3144
2574 4290
2574 4652
2574 5335
2574 7245
2574 7319
2574 7762
2574 8905
2574 9098
2574 9764
2575 2825
2575 3714
2575 4811
2575 4901
2575 5191
2575 5891
2575 7609
2575 7762
2575 8735
2575 8777
2575 9880
2576 2806
2576 3442
2576 3548
2576 3711
2576 4702
2576 4812
2576 4993
2576 5514
2576 5727
2576 5833
2576 7612
2576 8045
2576 9228
2576 9731
2576 9964
2577 2701
2577 3521
2577 3748
2577 5402
2577 5600
2577 5719
2577 5918
2577 6986
2577 7361
2577 8782
2577 9160
2577 9162
2578 3124
2578 4858
2578 5311
2578 5402
2578 6324
2578 6721
2578 7176
2578 9661
2578 9885
2579 2586
2579 3465
2579 3487
2579 3814
2579 3954
2579 4488
2579 4580
2579 4732
2579 4740
2579 5113
2579 5185
2579 5381
2579 6356
2579 6680
2579 7008
2579 7088
2579 7551
2579 7911
2579 8086
2579 8327
2579 8496
2579 8701
2579 8878
2579 9255
2579 9744
2580 3853
2580 3866
2580 4416
2580 7941
2580 8434
2580 8598
2580 9433
2580 9647
2580 9698
2580 9988
2581 3680
2581 4073
2581 4336
2581 6756
2581 7366
2581 7524
2581 7541
2581 7796
2581 7945
2581 8149
2581 8675
2581 9341
2581 9450
2581 9927
2582 2779
2582 3908
2582 5077
2582 5261
2582 5659
2582 5829
2582 6824
2582 6901
2582 7337
2582 8040
2582 8609
2582 9103
2582 9366
2582 9997
2583 4798
2583 5391
2583 7131
2583 7208
2583 9484
2583 9901
2583 9946
2584 2776
2584 2973
2584 3148
2584 3578
2584 3658
2584 3891
2584 4132
2584 4385
2584 4567
2584 4779
2584 5105
2584 5228
2584 6214
2584 6492
2584 7166
2584 7201
2584 7442
2584 8193
2584 8954
2584 9176
2584 9284
2584 9954
2585 2856
2585 3297
2585 3366
2585 4520
2585 5949
2585 5951
2585 6198
2585 8035
2585 8476
2585 9252
2585 9644
2586 2937
2586 3237
2586 3354
2586 3744
2586 5352
2586 5970
2586 6077
2586 6187
2586 7690
2586 7821
2586 7833
2586 8499
2586 8891
2586 9232
2587 4188
2587 5000
2587 5808
2587 6591
2587 6830
2587 7181
2587 7713
2587 7762
2588 2820
2588 4891
2588 5576
2588 5952
2588 9076
2588 9162
2589 2702
2589 2705
2589 2997
2589 4221
2589 4242
2589 5225
2589 6311
2589 7006
2589 7270
2589 7841
2589 8236
2589 8936
2589 9093
2590 3287
2590 3338
2590 3986
2590 3998
2590 5358
2590 6049
2590 7949
2590 8294
2590 8530
2590 9828
2591 3456
2591 4065
2591 4516
2591 5359
2591 8103
2591 8580
2591 9104
2592 2622
2592 3127
2592 5739
2592 7255
2592 7317
2592 8501
2593 6568
2593 8089
2593 8606
2593 8666
2593 9048
2593 9850
2594 3091
2594 3158
2594 3532
2594 4021
2594 4132
2594 4702
2594 4829
2594 5938
2594 6870
2594 6992
2594 7521
2594 8169
2594 8317
2595 2935
2595 2951
2595 3351
2595 3384
2595 3855
2595 4593
2595 4807
2595 4865
2595 4954
2595 5039
2595 6067
2595 6141
2595 6426
2595 6571
2595 6812
2595 6976
2595 7341
2595 7374
2595 7581
2595 7627
2595 7706
2595 8496
2595 8594
2595 8639
2595 8724
2595 8881
2596 5558
2596 6546
2596 6922
2596 8019
2596 8023
2596 8369
2596 8467
2596 9783
2597 2899
2597 3204
2597 3486
2597 6794
2597 7450
2597 7483
2597 8183
2597 8901
2598 2866
2598 5815
2598 6206
2598 6420
2598 7167
2598 7366
2598 7514
2598 7774
2598 9309
2598 9393
2598 9713
2598 9982
2599 2789
2599 3252
2599 3751
2599 4215
2599 5039
2599 5772
2599 6545
2599 6683
2599 6806
2599 6975
2599 8081
2599 8168
2599 9109
2600 2961
2600 4215
2600 4733
2600 5258
2600 5423
2600 5879
2600 9218
2600 9335
2601 3091
2601 3100
2601 3830
2601 3918
2601 4213
2601 4482
2601 4510
2601 4561
2601 4747
2601 4749
2601 4923
2601 5003
2601 5006
2601 5081
2601 5253
2601 5619
2601 5973
2601 6190
2601 6307
2601 6816
2601 6902
2601 6988
2601 7023
2601 7486
2601 7536
2601 8192
2601 8574
2601 8761
2601 8825
2601 8846
2601 8979
2601 9322
2601 9672
2601 9742
2602 3302
2602 3538
2602 4556
2602 4925
2602 5890
2602 7110
2602 9255
2603 2825
2603 3136
2603 3496
2603 3529
2603 4290
2603 5673
2603 7232
2603 8885
2604 2946
2604 4988
2604 5011
2604 5458
2604 5501
2604 5938
2604 6281
2604 7777
2604 8102
2604 9231
2604 9870
2604 9923
2605 2836
2605 3898
2605 4377
2605 5519
2605 5726
2605 5808
2605 6357
2605 6444
2605 6658
2605 7791
2605 8615
2606 4569
2606 4740
2606 4906
2606 5233
2606 5918
2606 5984
2606 6571
2606 6693
2606 6814
2606 8591
2606 9466
2606 9818
2607 2626
2607 2859
2607 3626
2607 4436
2607 7385
2607 7456
2607 7690
2607 8417
2607 8973
2607 9210
2608 5521
2608 5993
2608 6505
2608 6740
2608 7419
2608 7464
2608 7468
2608 8147
2609 2897
2609 3476
2609 3992
2609 4011
2609 5427
2609 5801
2609 5841
2609 5845
2609 6240
2609 8195
2609 8665
2609 9253
2609 9443
2610 3867
2610 4804
2610 5541
2610 5647
2610 6131
2610 6643
2610 7413
2610 7588
2610 7820
2610 8157
2610 8944
2610 9461
2611 3207
2611 3625
2611 3696
2611 3827
2611 4114
2611 4345
2611 4838
2611 5214
2611 7079
2611 7521
2611 7535
2611 7791
2611 8005
2611 8495
2611 9456
2611 9484
2612 2857
2612 4743
2612 4757
2612 6512
2612 8341
2612 9280
2612 9807
2613 3093
2613 3139
2613 3308
2613 4662
2613 4903
2613 5718
2613 6503
2613 6583
2613 6890
2613 7522
2613 8396
2613 9079
2613 9257
2613 9346
2614 2705
2614 3241
2614 3555
2614 4202
2614 4421
2614 4808
2614 5184
2614 6456
2614 7304
2614 9588
2614 9886
2615 3180
2615 3198
2615 3604
2615 4043
2615 5074
2615 7718
2615 8086
2615 9420
2616 3048
2616 3366
2616 3917
2616 4363
2616 4530
2616 4785
2616 4989
2616 7018
2616 7080
2616 7386
2616 8285
2616 8309
2616 8512
2616 9948
2617 3921
2617 4221
2617 4691
2617 4975
2617 5269
2617 5310
2617 6020
2617 6172
2617 6174
2617 6632
2617 7027
2617 7883
2617 8243
2618 2879
2618 3262
2618 3896
2618 4415
2618 4615
2618 6087
2618 7673
2618 8570
2619 2656
2619 2919
2619 2928
2619 3070
2619 3512
2619 3659
2619 4553
2619 4720
2619 4803
2619 5006
2619 5296
2619 5473
2619 5511
2619 5662
2619 5691
2619 7515
2619 7553
2619 7943
2619 8003
2619 8012
2619 8335
2619 8907
2619 9005
2619 9115
2619 9247
2619 9428
2619 9575
2619 9633
2619 9666
2619 9669
2619 9942
2619 9957
2620 2898
2620 3006
2620 3203
2620 3212
2620 3381
2620 3525
2620 3709
2620 3886
2620 3957
2620 4889
2620 5450
2620 5489
2620 5550
2620 5681
2620 5760
2620 6055
2620 6236
2620 6302
2620 6564
2620 6824
2620 7069
2620 7358
2620 7452
2620 7915
2620 7994
2620 8657
2620 8833
2620 9290
2620 9750
2620 9754
2620 9791
2621 3593
2621 3682
2621 3790
2621 3953
2621 4067
2621 4335
2621 4761
2621 7980
2621 8446
2621 8473
2621 8880
2622 2925
2622 3032
2622 3258
2622 3268
2622 4339
2622 4786
2622 5110
2622 6806
2622 7202
2622 7896
2622 9483
2623 3425
2623 4483
2623 5186
2623 5579
2623 6070
2623 6077
2623 6578
2623 7463
2623 8027
2623 8115
2623 8446
2623 8609
2624 3304
2624 4164
2624 4223
2624 4363
2624 5269
2624 5758
2624 6999
2624 7286
2624 7298
2624 8620
2624 8696
2624 9208
2625 3215
2625 3635
2625 4319
2625 4357
2625 4711
2625 5435
2625 6747
2625 8031
2625 9138
2626 2855
2626 3265
2626 3314
2626 3491
2626 4567
2626 4600
2626 4807
2626 4817
2626 5423
2626 5488
2626 5902
2626 6034
2626 6139
2626 6580
2626 6686
2626 6901
2626 6964
2626 7061
2626 7106
2626 7711
2626 7802
2626 7938
2626 8068
2626 8751
2626 8833
2626 9011
2626 9158
2626 9831
2627 2789
2627 3368
2627 3878
2627 4024
2627 4052
2627 4624
2627 4682
2627 4938
2627 5118
2627 5195
2627 5210
2627 5245
2627 5479
2627 5827
2627 6257
2627 6344
2627 6448
2627 6544
2627 6705
2627 6894
2627 6903
2627 7297
2627 7516
2627 8020
2627 8191
2627 8494
2627 8549
2627 8887
2627 9289
2627 9378
2627 9525
2628 2870
2628 3260
2628 3290
2628 3443
2628 3538
2628 3983
2628 4009
2628 4093
2628 4444
2628 4772
2628 4793
2628 4813
2628 5049
2628 5332
2628 5526
2628 5680
2628 6017
2628 6582
2628 6889
2628 7287
2628 7390
2628 7611
2628 7688
2628 7859
2628 7979
2628 8014
2628 8223
2628 8647
2628 9634
2629 3230
2629 3477
2629 5277
2629 6198
2629 7110
2629 8343
2629 8656
2629 9270
2629 9339
2629 9900
2630 2716
2630 3057
2630 4522
2630 5094
2630 5857
2630 5921
2630 6261
2630 6339
2630 6416
2630 6892
2630 6903
2630 6996
2630 6999
2630 7015
2630 8411
2630 8455
2630 8456
2630 9070
2630 9440
2630 9458
2631 3425
2631 4163
2631 4176
2631 4953
2631 5619
2631 6322
2631 8140
2631 8382
2631 8958
2631 9100
2631 9345
2631 9578
2632 3117
2632 4258
2632 4852
2632 5204
2632 8751
2632 9455
2633 3447
2633 3965
2633 4024
2633 4597
2633 4649
2633 5219
2633 6357
2633 7011
2633 7632
2633 7667
2633 7676
2633 8213
2633 8443
2633 8535
2633 9561
2634 2711
2634 3569
2634 3682
2634 4614
2634 4789
2634 5290
2634 6382
2634 6582
2634 7721
2634 7980
2634 8040
2634 8046
2634 8192
2634 8371
2634 8446
2634 8462
2634 8751
2634 8788
2634 8880
2634 9084
2635 2758
2635 3597
2635 3688
2635 5021
2635 5226
2635 5239
2635 5474
2635 5527
2635 5983
2635 6291
2635 6387
2635 6621
2635 6626
2635 6749
2635 7070
2635 7159
2635 7209
2635 7449
2635 7515
2635 7996
2635 8294
2635 8370
2635 8388
2635 8501
2635 8527
2635 8909
2635 9792
2636 2679
2636 2990
2636 3380
2636 3923
2636 5310
2636 5349
2636 5620
2636 5652
2636 6314
2636 6998
2636 7009
2636 7455
2636 7482
2636 8019
2636 8047
2637 3732
2637 3923
2637 4439
2637 4489
2637 5159
2637 6064
2637 6935
2637 8882
2637 8990
2637 9206
2637 9826
2638 2867
2638 3622
2638 3947
2638 4141
2638 6132
2638 7229
2638 8506
2638 9398
2638 9553
2639 3710
2639 5439
2639 5535
2639 5771
2639 5829
2639 5954
2639 6312
2639 6846
2639 6953
2639 8418
2639 8574
2639 8693
2639 9217
2639 9377
2639 9489
2640 3020
2640 3194
2640 3243
2640 3522
2640 4400
2640 5620
2640 6222
2640 7279
2640 7987
2640 8982
2640 9192
2640 9777
2641 2779
2641 3095
2641 3623
2641 5321
2641 7689
2641 9577
2641 9826
2642 3083
2642 3204
2642 3311
2642 3845
2642 4714
2642 5198
2642 5476
2642 6243
2642 6843
2642 9297
2642 9553
2643 2996
2643 3505
2643 4205
2643 4872
2643 5104
2643 6698
2643 6819
2643 8282
2643 9721
2643 9910
2644 3532
2644 4074
2644 4851
2644 4996
2644 5171
2644 5396
2644 5431
2644 7019
2644 7552
2644 7752
2644 8205
2644 8670
2644 9889
2645 3569
2645 3846
2645 5377
2645 6691
2645 7369
2645 7396
2645 7710
2645 8010
2645 8450
2645 8968
2645 9146
2645 9345
2646 3179
2646 3223
2646 3524
2646 3574
2646 4603
2646 4973
2646 4986
2646 5218
2646 5411
2646 6482
2646 6612
2646 6892
2646 7395
2646 8228
2646 8331
2646 8853
2646 9996
2647 3573
2647 4749
2647 4973
2647 4986
2647 5147
2647 5218
2647 5242
2647 5304
2647 5478
2647 5509
2647 5584
2647 5763
2647 6482
2647 8243
2647 9129
2648 4191
2648 5819
2648 6121
2648 6210
2648 6216
2648 7793
2648 8779
2648 8901
2648 8937
2648 9298
2648 9331
2649 3189
2649 3592
2649 6052
2649 6196
2649 6468
2649 6855
2649 6963
2649 7031
2649 7426
2649 8649
2649 8724
2649 8827
2649 9226
2649 9489
2649 9794
2650 2780
2650 2934
2650 2966
2650 3745
2650 4070
2650 4130
2650 5700
2650 6386
2650 7671
2650 7863
2650 8070
2650 9426
2651 2712
2651 3379
2651 4329
2651 4529
2651 4555
2651 5344
2651 5543
2651 5569
2651 6532
2651 7169
2651 8513
2651 9032
2651 9627
2652 4081
2652 4322
2652 4546
2652 6541
2652 7285
2652 7858
2652 7979
2652 7995
2652 8665
2652 9401
2652 9446
2652 9943
2653 3005
2653 3240
2653 3452
2653 4450
2653 4805
2653 5151
2653 5294
2653 6914
2653 7306
2653 7393
2653 7522
2653 8013
2653 8184
2653 8372
2653 8890
2653 9585
2653 9696
2654 3119
2654 3896
2654 4191
2654 6370
2654 6464
2654 6915
2654 7494
2654 7647
2654 8005
2654 8890
2655 3331
2655 4133
2655 4199
2655 5107
2655 5330
2655 6949
2655 7169
2655 7694
2655 8518
2655 9162
2655 9601
2655 9899
2656 3046
2656 3576
2656 4029
2656 4518
2656 6903
2656 7045
2656 7799
2656 9906
2657 2977
2657 3003
2657 3021
2657 3303
2657 3704
2657 3781
2657 5528
2657 7826
2657 7902
2657 8622
2657 9148
2658 3463
2658 3653
2658 4704
2658 5200
2658 5727
2658 6420
2658 7467
2659 3951
2659 4312
2659 4994
2659 5440
2659 5500
2659 5735
2659 5738
2659 5831
2659 7629
2659 7659
2659 7824
2659 8062
2659 8209
2659 8396
2659 8524
2659 8626
2659 9005
2659 9415
2659 9527
2660 2902
2660 3695
2660 4039
2660 6002
2660 6159
2660 6663
2660 7383
2660 8630
2660 9365
2660 9535
2660 9658
2661 2959
2661 3121
2661 4691
2661 7172
2661 7691
2661 8835
2661 8889
2661 9150
2661 9570
2662 2675
2662 3407
2662 4163
2662 4580
2662 4853
2662 4948
2662 6601
2662 6791
2662 6981
2662 7331
2662 7552
2662 7948
2662 8532
2662 8613
2662 8713
2662 8723
2662 8890
2662 9370
2662 9755
2662 9945
2663 2768
2663 3743
2663 3903
2663 4177
2663 4235
2663 4289
2663 5196
2663 5427
2663 5620
2663 6041
2663 6247
2663 6632
2663 7656
2663 7946
2663 8501
2664 3049
2664 3500
2664 4078
2664 4317
2664 4629
2664 4881
2664 5209
2664 5464
2664 6127
2664 6848
2664 7170
2664 7356
2664 7710
2664 7813
2664 8451
2664 8800
2664 8855
2664 9230
2664 9231
2664 9343
2664 9384
2664 9842
2664 9979
2665 3183
2665 3404
2665 5620
2665 7836
2665 8547
2665 9685
2665 9697
2666 3379
2666 4765
2666 5018
2666 5204
2666 5483
2666 5516
2666 5865
2666 6916
2666 7589
2666 9482
2666 9517
2667 2916
2667 6712
2667 7285
2667 8212
2667 8280
2667 8902
2667 9349
2668 3035
2668 3372
2668 5377
2668 5492
2668 6161
2668 7744
2668 8009
2668 9312
2669 3217
2669 3488
2669 3978
2669 4665
2669 5502
2669 6267
2669 7245
2669 7265
2669 7467
2669 7897
2669 8089
2669 8764
2670 2767
2670 4356
2670 4846
2670 5387
2670 6085
2670 6141
2670 6623
2670 6635
2670 8080
2670 8276
2670 8455
2670 8926
2671 3135
2671 3348
2671 3409
2671 4018
2671 4391
2671 4988
2671 5947
2671 6028
2671 6503
2671 6742
2671 7232
2671 7254
2671 8467
2671 9158
2671 9451
2671 9515
2671 9565
2671 9610
2671 9650
2671 9868
2672 2877
2672 3599
2672 4571
2672 4587
2672 5113
2672 5229
2672 5446
2672 5641
2672 6352
2672 7988
2672 8122
2672 8976
2672 9195
2672 9276
2672 9462
2672 9803
2673 3485
2673 3526
2673 3571
2673 6359
2673 7543
2673 7999
2673 9588
2673 9837
2674 3355
2674 3571
2674 3908
2674 4416
2674 4526
2674 4903
2674 5106
2674 6863
2674 6901
2674 8167
2674 8609
2674 9103
2674 9672
2674 9858
2675 2677
2675 3743
2675 3749
2675 4787
2675 4827
2675 5354
2675 6289
2675 7008
2675 7693
2675 7878
2675 8760
2675 9022
2675 9288
2675 9292
2675 9544
2675 9931
2676 4130
2676 4448
2676 5097
2676 6101
2676 8642
2676 8716
2676 9430
2677 2820
2677 3151
2677 3517
2677 4155
2677 4535
2677 4624
2677 5192
2677 5757
2677 6103
2677 6433
2677 6502
2677 6747
2677 6956
2677 7110
2677 7149
2677 7244
2677 7357
2677 7585
2677 7595
2677 7895
2677 7941
2677 8321
2677 8388
2677 8712
2677 8979
2677 9608
2678 4858
2678 4913
2678 5402
2678 5498
2678 6226
2678 8078
2678 8523
2678 9251
2678 9661
2678 9922
2679 2941
2679 3002
2679 4537
2679 4635
2679 5019
2679 5523
2679 5673
2679 5716
2679 6909
2679 6953
2679 7257
2679 7617
2679 8295
2679 8541
2679 8964
2679 9470
2680 2917
2680 3146
2680 4726
2680 5186
2680 5290
2680 5476
2680 6803
2680 6919
2680 6939
2680 7732
2680 7980
2680 8185
2680 8247
2680 8274
2680 8880
2680 8980
2680 9985
2681 3926
2681 4398
2681 5043
2681 5577
2681 5693
2681 5857
2681 6062
2681 7102
2681 7540
2681 9251
2682 2685
2682 2931
2682 4129
2682 5391
2682 6798
2682 7131
2682 8901
2682 9484
2682 9522
2682 9901
2683 2737
2683 3354
2683 5945
2683 6110
2683 6199
2683 6586
2683 6603
2683 6861
2683 7221
2683 7224
2683 7240
2683 7722
2683 8221
2683 9068
2683 9534
2683 9852
2684 3333
2684 6021
2684 6105
2684 6627
2684 6639
2684 8121
2684 9640
2685 2842
2685 2872
2685 2883
2685 3047
2685 3649
2685 3912
2685 4242
2685 4267
2685 5017
2685 5674
2685 6077
2685 6083
2685 6124
2685 6448
2685 6912
2685 6948
2685 7030
2685 7551
2685 7812
2685 7951
2685 9913
2686 2744
2686 2908
2686 3415
2686 3457
2686 3775
2686 4154
2686 4746
2686 5416
2686 6920
2686 6953
2686 7178
2686 7190
2686 8057
2686 9134
2686 9349
2686 9827
2687 2726
2687 3305
2687 3525
2687 5207
2687 5458
2687 6499
2687 7415
2687 9109
2688 3315
2688 3599
2688 3924
2688 3959
2688 4086
2688 4476
2688 5367
2688 6382
2688 6568
2688 6693
2688 6877
2688 7029
2688 7541
2688 7574
2688 7846
2688 8662
2688 9245
2688 9636
2688 9804
2688 9889
2688 9946
2689 3331
2689 4030
2689 6189
2689 8072
2689 8718
2689 9484
2690 2936
2690 3214
2690 5205
2690 6820
2690 7708
2690 8591
2690 8644
2691 3931
2691 5505
2691 5664
2691 5906
2691 6399
2691 6438
2691 6535
2691 7483
2691 7522
2691 8408
2691 8560
2691 8680
2691 9370
2691 9524
2691 9836
2692 2770
2692 3732
2692 3835
2692 4987
2692 5061
2692 5160
2692 5697
2692 5980
2692 6216
2692 7114
2692 8832
2692 9483
2693 3437
2693 4091
2693 5245
2693 5304
2693 5810
2693 6499
2693 6610
2693 7723
2693 8953
2694 5972
2694 6218
2694 6312
2694 6569
2694 6916
2694 7030
2694 8055
2694 9042
2694 9892
2695 3463
2695 3793
2695 3978
2695 5526
2695 5819
2695 6647
2695 7178
2695 8045
2695 8686
2695 8913
2695 9070
2695 9521
2696 3955
2696 6196
2696 7483
2696 7612
2696 7957
2696 8036
2696 8689
2696 8716
2696 9188
2697 2842
2697 2915
2697 3102
2697 4190
2697 5262
2697 5624
2697 5629
2697 6074
2697 6354
2697 6368
2697 6533
2697 6625
2697 7882
2697 8179
2697 8235
2697 8541
2697 8551
2697 9788
2698 2895
2698 4744
2698 6009
2698 7217
2698 7710
2698 8032
2698 8682
2699 3409
2699 4391
2699 6471
2699 7043
2699 7601
2699 7677
2699 8874
2699 9256
2700 3126
2700 6696
2700 8383
2701 3521
2701 5719
2701 6628
2701 7222
2701 7361
2701 7373
2701 7845
2701 8144
2701 8943
2702 2997
2702 4858
2702 7085
2702 7908
2702 8737
2702 8936
2702 9672
2702 9869
2702 9984
2703 3083
2703 4343
2703 5098
2703 5764
2703 6628
2703 6706
2703 7056
2703 7080
2703 7985
2703 8539
2703 8898
2704 3095
2704 3538
2704 4603
2704 4604
2704 5930
2704 6399
2704 7080
2704 7969
2704 8319
2704 8723
2705 4207
2705 5985
2705 9344
2706 2783
2706 2890
2706 2925
2706 2963
2706 3464
2706 3467
2706 3719
2706 3906
2706 4323
2706 4490
2706 4712
2706 4939
2706 5307
2706 6327
2706 6398
2706 6454
2706 6483
2706 6565
2706 6706
2706 8661
2706 8798
2706 8804
2706 9267
2706 9517
2706 9933
2707 2993
2707 3246
2707 4337
2707 5711
2707 6778
2707 7361
2707 7788
2707 9689
2708 3345
2708 4935
2708 5067
2708 5408
2708 5670
2708 7515
2708 8418
2708 8475
2708 9830
2709 4693
2709 6771
2709 7803
2709 7862
2709 8158
2709 9804
2710 3097
2710 3652
2710 5292
2710 5447
2710 5509
2710 6486
2710 6841
2710 7063
2710 7551
2710 8656
2710 8989
2711 3142
2711 3243
2711 3306
2711 3478
2711 3525
2711 3664
2711 3700
2711 3850
2711 4140
2711 4325
2711 4481
2711 4708
2711 4816
2711 5158
2711 5274
2711 5429
2711 5655
2711 5801
2711 6146
2711 6260
2711 6425
2711 7291
2711 7486
2711 7991
2711 7998
2711 8190
2711 8336
2711 8590
2711 9271
2711 9411
2711 9867
2711 9925
2711 9960
2712 2797
2712 3938
2712 3986
2712 4132
2712 4688
2712 5182
2712 5232
2712 5473
2712 5720
2712 5800
2712 5876
2712 5900
2712 5957
2712 6775
2712 6878
2712 7164
2712 7402
2712 7713
2712 7809
2712 8169
2712 8814
2712 9087
2712 9233
2712 9771
2713 2979
2713 3664
2713 4129
2713 4138
2713 4376
2713 4666
2713 4903
2713 5273
2713 7191
2713 7973
2713 8459
2714 3109
2714 3265
2714 3421
2714 3495
2714 3635
2714 3912
2714 4586
2714 4980
2714 5069
2714 5195
2714 5407
2714 5936
2714 6126
2714 6591
2714 6686
2714 7114
2714 7229
2714 7332
2714 8170
2714 8269
2714 8790
2714 8899
2714 9045
2714 9248
2714 9376
2714 9422
2714 9572
2714 9677
2714 9746
2714 9835
2715 2922
2715 3084
2715 3427
2715 5054
2715 6060
2715 6246
2715 6747
2715 6825
2715 7077
2715 9007
2715 9669
2715 9803
2716 3063
2716 6416
2716 6546
2716 7540
2716 7865
2716 8510
2716 9070
2717 3150
2717 3893
2717 4788
2717 5422
2717 6245
2717 6575
2717 7543
2717 8241
2717 9974
2718 3128
2718 4441
2718 7436
2718 9623
2719 3286
2719 3408
2719 3823
2719 4517
2719 5149
2719 6027
2719 6157
2719 6397
2719 7230
2719 7442
2719 8518
2719 8940
2719 9300
2719 9560
2719 9729
2720 3561
2720 4058
2720 5987
2720 7033
2720 8026
2720 8259
2720 8288
2720 8333
2720 9451
2721 2993
2721 3068
2721 3179
2721 3724
2721 4550
2721 4576
2721 5107
2721 5193
2721 5816
2721 6470
2721 6545
2721 8406
2721 8454
2721 8694
2721 9062
2721 9839
2722 3233
2722 3574
2722 4356
2722 5914
2722 6949
2722 7169
2722 8518
2723 2832
2723 3658
2723 5252
2723 5365
2723 6284
2723 7694
2723 8102
2723 9177
2723 9617
2724 3064
2724 3336
2724 3739
2724 3820
2724 3887
2724 3969
2724 4088
2724 4161
2724 4331
2724 4462
2724 4471
2724 5023
2724 5052
2724 5155
2724 5697
2724 5795
2724 5933
2724 6117
2724 6228
2724 6249
2724 7022
2724 7305
2724 7425
2724 7506
2724 7534
2724 7706
2724 8198
2724 8375
2724 8920
2724 8991
2724 9052
2724 9750
2724 9816
2725 3945
2725 4035
2725 4894
2725 5514
2725 5658
2725 6955
2725 7952
2725 8430
2725 9162
2725 9170
2726 3628
2726 4924
2726 5458
2726 5487
2726 5916
2726 6418
2726 6474
2726 6839
2726 7114
2726 8391
2726 8586
2726 9101
2726 9400
2727 2762
2727 3072
2727 3075
2727 3128
2727 3737
2727 4119
2727 4460
2727 4944
2727 5058
2727 5325
2727 5339
2727 6066
2727 6356
2727 6378
2727 6697
2727 6931
2727 7472
2727 7731
2727 8153
2727 8634
2727 9281
2727 9291
2727 9298
2727 9325
2727 9334
2727 9460
2727 9717
2727 9735
2728 2963
2728 3215
2728 3378
2728 3400
2728 3557
2728 3625
2728 4334
2728 4376
2728 4647
2728 5062
2728 5246
2728 5256
2728 5401
2728 5472
2728 5976
2728 6328
2728 6439
2728 6615
2728 6714
2728 6788
2728 6836
2728 7264
2728 7334
2728 8445
2728 8446
2728 8715
2728 8757
2728 8782
2728 9060
2728 9082
2728 9379
2728 9731
2729 2779
2729 3008
2729 4989
2729 7342
2729 7552
2729 9119
2729 9396
2729 9440
2729 9650
2729 9946
2730 4257
2730 4816
2730 4961
2730 5405
2730 6755
2730 7582
2730 7753
2730 7942
2730 8500
2730 8930
2731 3202
2731 3557
2731 5280
2731 5761
2731 6107
2731 7657
2731 9139
2731 9923
2732 2947
2732 3245
2732 4447
2732 4490
2732 4627
2732 4838
2732 5700
2732 6663
2732 6858
2732 7014
2732 7698
2732 8522
2732 8700
2732 9086
2733 3026
2733 3304
2733 6912
2733 7448
2733 7607
2733 8074
2733 8475
2733 8990
2733 9114
2733 9232
2733 9566
2734 4263
2734 4409
2734 4536
2734 5959
2734 6485
2734 6539
2734 6805
2734 7973
2734 8474
2734 8625
2734 8677
2735 2910
2735 6031
2735 8797
2735 9075
2736 2842
2736 3014
2736 3304
2736 5144
2736 5453
2736 5941
2736 5945
2736 6364
2736 6864
2736 7957
2736 9460
2736 9638
2736 9908
2737 5558
2737 5914
2737 6679
2737 6980
2737 7111
2737 8140
2737 9711
2738 2766
2738 3748
2738 3928
2738 4794
2738 5172
2738 5439
2738 5612
2738 5638
2738 6372
2738 6726
2738 7225
2738 7588
2738 7800
2738 7928
2738 8328
2738 9345
2738 9549
2739 2785
2739 2969
2739 3916
2739 4113
2739 6181
2739 7017
2739 7280
2739 7567
2739 7694
2739 7967
2739 8722
2739 8725
2739 9201
2739 9672
2740 3066
2740 3177
2740 3775
2740 4188
2740 4418
2740 4680
2740 4977
2740 5673
2740 6051
2740 6525
2740 7038
2740 8098
2740 8660
2740 9165
2741 2764
2741 5055
2741 5117
2741 6219
2741 6314
2741 6431
2741 7159
2741 7520
2741 8634
2741 9064
2742 2764
2742 3415
2742 3830
2742 5751
2742 6352
2742 6935
2742 7317
2742 7586
2742 7801
2742 8335
2742 8475
2742 9408
2743 3230
2743 3244
2743 3274
2743 4645
2743 5664
2743 5914
2743 6352
2743 6539
2743 7066
2743 8288
2743 8927
2743 8988
2743 9087
2743 9173
2743 9601
2743 9765
2744 3371
2744 4240
2744 5151
2744 7398
2744 8223
2744 9061
2744 9577
2745 2874
2745 2943
2745 3101
2745 3204
2745 3233
2745 3490
2745 3536
2745 4484
2745 4493
2745 4845
2745 4993
2745 5043
2745 5152
2745 5344
2745 5520
2745 5595
2745 6783
2745 7330
2745 7337
2745 7406
2745 7816
2745 8089
2745 8126
2745 8442
2745 8564
2745 8571
2745 8654
2745 8764
2745 8958
2745 9019
2745 9763
2745 9995
2746 3986
2746 4308
2746 4744
2746 5486
2746 6313
2746 6719
2746 6941
2746 8152
2746 8312
2746 9107
2746 9377
2746 9467
2746 9672
2747 2965
2747 3077
2747 3289
2747 5092
2747 5345
2747 5361
2747 7602
2747 7952
2747 8931
2747 9109
2747 9298
2748 3236
2748 3904
2748 5187
2748 6429
2748 8653
2748 9065
2748 9339
2748 9721
2748 9796
2749 2802
2749 3004
2749 3100
2749 3477
2749 3803
2749 4199
2749 5138
2749 5215
2749 5821
2749 6426
2749 7156
2749 8208
2750 3025
2750 3830
2750 4298
2750 4805
2750 5366
2750 5716
2750 5947
2750 6054
2750 6438
2750 6538
2750 8680
2750 9299
2751 3608
2751 3886
2751 5390
2751 5907
2751 6795
2751 7012
2751 7085
2751 7273
2751 7385
2751 8337
2751 8388
2752 2808
2752 2941
2752 2965
2752 3131
2752 3484
2752 3776
2752 4027
2752 4417
2752 4529
2752 5018
2752 5337
2752 5732
2752 5894
2752 5979
2752 6251
2752 6503
2752 6619
2752 6756
2752 7262
2752 7308
2752 7540
2752 7945
2752 8074
2752 8233
2752 8630
2753 4237
2753 4891
2753 4903
2753 5108
2753 5271
2753 5393
2753 5654
2753 5877
2753 6116
2753 6139
2753 6161
2753 6221
2753 6789
2753 7464
2753 7903
2753 7986
2753 8059
2753 8311
2753 8355
2753 9324
2753 9410
2753 9558
2753 9665
2754 2788
2754 3202
2754 3206
2754 3355
2754 3429
2754 3798
2754 3864
2754 3875
2754 4115
2754 4520
2754 4542
2754 4630
2754 4777
2754 5102
2754 5115
2754 5584
2754 6195
2754 6276
2754 6300
2754 6318
2754 7117
2754 7473
2754 7682
2754 7756
2754 8124
2754 8445
2754 8683
2754 8870
2754 8968
2754 9162
2754 9269
2754 9750
2754 9908
2755 3091
2755 4288
2755 5076
2755 5486
2755 9375
2756 3463
2756 3787
2756 4327
2756 4627
2756 5063
2756 5944
2756 8225
2756 9539
2757 2758
2757 3406
2757 3552
2757 3836
2757 3840
2757 4272
2757 4295
2757 4606
2757 5446
2757 5851
2757 6329
2757 7255
2757 7616
2757 7774
2757 9350
2757 9596
2758 2875
2758 3381
2758 3433
2758 4269
2758 4606
2758 5643
2758 6414
2758 6937
2758 7099
2758 8243
2758 8484
2758 9238
2758 9444
2758 9671
2759 3264
2759 3550
2759 3639
2759 4560
2759 5007
2759 5302
2759 6056
2759 6226
2759 8982
2760 3135
2760 3976
2760 4526
2760 4787
2760 4854
2760 5794
2760 5803
2760 6197
2760 6901
2760 7012
2760 7383
2760 7557
2760 8137
2760 8784
2761 2805
2761 4235
2761 4870
2761 5172
2761 5487
2761 5759
2761 6970
2761 7362
2761 8103
2761 9212
2762 2934
2762 3511
2762 3738
2762 3915
2762 4204
2762 5770
2762 7546
2762 8544
2762 9178
2762 9649
2763 2804
2763 3342
2763 3494
2763 3732
2763 4010
2763 4784
2763 5172
2763 5433
2763 7014
2763 8034
2763 8465
2763 8845
2763 9274
2763 9290
2763 9431
2764 3003
2764 3077
2764 3105
2764 3339
2764 3752
2764 4259
2764 4570
2764 4929
2764 5210
2764 5233
2764 5345
2764 5379
2764 5436
2764 5903
2764 6022
2764 6143
2764 6615
2764 7412
2764 7584
2764 7913
2764 8082
2764 8440
2764 8538
2764 8818
2764 9147
2764 9221
2764 9269
2764 9399
2764 9432
2764 9788
2764 9861
2764 9991
2765 3102
2765 4674
2765 5056
2765 5146
2765 5167
2765 5574
2765 5834
2765 6012
2765 6503
2765 6537
2765 7309
2765 7353
2765 7525
2765 7833
2765 7919
2765 8933
2765 9332
2766 3197
2766 5462
2766 6930
2766 7081
2766 7463
2766 7589
2766 8001
2766 8412
2766 9590
2767 2785
2767 2927
2767 2978
2767 3283
2767 3517
2767 3527
2767 3558
2767 3705
2767 3789
2767 4695
2767 4710
2767 4731
2767 4940
2767 5436
2767 5505
2767 5935
2767 6093
2767 6635
2767 6967
2767 7444
2767 8080
2767 8141
2767 8276
2767 8306
2767 8385
2767 8455
2767 8534
2767 8633
2767 8650
2767 8926
2767 9092
2767 9216
2767 9248
2767 9331
2768 2946
2768 3439
2768 3500
2768 4300
2768 5263
2768 5870
2768 6004
2768 6554
2768 6764
2768 6810
2768 7021
2768 7713
2768 7804
2768 7961
2768 8947
2768 9406
2768 9547
2769 2965
2769 3858
2769 3924
2769 5091
2769 5644
2769 5759
2769 6492
2769 6848
2769 8398
2769 9173
2769 9594
2769 9779
2770 3782
2770 4159
2770 4252
2770 4291
2770 5149
2770 5224
2770 5639
2770 6133
2770 6411
2770 6423
2770 6712
2770 6949
2770 7814
2770 7950
2771 6135
2771 6423
2771 7139
2771 7589
2771 7836
2771 9153
2771 9853
2772 2869
2772 3054
2772 3088
2772 3119
2772 3153
2772 3181
2772 3211
2772 3406
2772 4407
2772 4546
2772 4896
2772 5148
2772 5185
2772 5235
2772 5450
2772 5541
2772 5599
2772 5830
2772 5907
2772 6010
2772 6347
2772 6451
2772 6800
2772 6934
2772 7290
2772 7463
2772 8802
2772 8914
2772 9228
2772 9309
2773 3285
2773 3687
2773 5089
2773 5150
2773 5446
2773 5911
2773 7811
2773 8276
2773 8437
2773 8989
2773 9226
2773 9530
2774 3388
2774 3795
2774 3898
2774 4260
2774 4814
2774 5591
2774 5730
2774 5955
2774 6001
2774 6632
2774 6988
2774 8025
2774 9019
2774 9046
2775 3257
2775 5180
2775 5302
2775 7447
2775 7623
2775 7867
2775 8421
2775 9171
2775 9243
2775 9697
2776 3815
2776 4000
2776 4717
2776 6012
2776 6119
2776 6372
2776 7110
2776 7218
2776 8344
2776 8415
2776 8759
2776 9565
2776 9834
2776 9954
2776 9997
2777 4695
2777 6815
2777 7162
2777 7463
2777 8126
2777 9669
2778 2965
2778 2989
2778 3101
2778 4162
2778 4166
2778 4761
2778 4764
2778 5038
2778 6188
2778 6771
2778 7009
2778 7550
2778 8146
2778 8417
2778 8502
2778 8507
2778 9318
2778 9340
2779 3604
2779 4475
2779 4989
2779 6375
2779 9650
2779 9745
2779 9946
2780 3486
2780 4150
2780 4404
2780 4996
2780 5066
2780 5812
2780 6049
2780 6315
2780 6498
2780 6588
2780 6604
2780 6642
2780 6696
2780 6902
2780 7095
2780 7123
2780 7589
2780 7613
2780 7661
2780 7778
2780 8226
2780 8236
2780 8276
2780 8536
2780 8741
2780 8844
2780 9092
2780 9213
2780 9726
2780 9913
2780 9961
2781 2929
2781 3307
2781 3647
2781 3909
2781 4324
2781 4638
2781 5011
2781 5965
2781 6283
2781 6309
2781 6603
2781 7119
2781 7393
2782 2877
2782 3700
2782 5302
2782 5336
2782 6158
2782 6579
2782 9045
2782 9852
2783 4323
2783 5307
2783 5372
2783 6135
2783 6387
2783 6398
2783 7199
2783 8122
2783 8804
2783 9267
2784 3100
2784 3109
2784 3343
2784 3524
2784 4441
2784 4459
2784 4911
2784 5423
2784 5441
2784 6281
2784 6295
2784 6373
2784 7050
2784 7128
2784 7314
2784 7404
2784 7935
2784 8551
2784 8719
2784 8988
2784 9483
2784 9969
2785 3109
2785 4189
2785 5466
2785 5468
2785 5666
2785 6390
2785 6525
2785 6601
2785 7104
2785 7280
2785 8878
2785 8966
2785 8991
2786 3841
2786 4364
2786 4469
2786 4471
2786 4479
2786 4672
2786 4898
2786 4935
2786 4998
2786 5432
2786 5864
2786 7578
2786 9046
2786 9418
2786 9590
2787 3501
2787 4202
2787 4952
2787 6040
2787 6964
2787 7325
2787 8463
2787 9329
2788 2983
2788 3148
2788 4162
2788 5875
2788 6570
2788 6697
2788 6816
2788 7493
2788 7840
2788 9356
2789 3751
2789 4727
2789 4930
2789 7392
2789 7515
2789 8017
2789 8729
2790 3470
2790 4474
2790 6375
2790 7860
2790 9268
2791 2924
2791 3594
2791 4376
2791 4970
2791 5149
2791 5251
2791 5511
2791 5639
2791 6133
2791 6192
2791 6620
2791 6756
2791 7416
2791 7680
2791 7950
2791 8209
2791 8213
2791 8283
2791 9429
2792 4030
2792 4157
2792 4742
2792 4806
2792 7188
2792 7511
2792 7556
2792 8431
2792 8583
2792 8768
2793 3418
2793 3643
2793 5683
2793 7108
2793 7437
2793 7627
2793 8569
2793 9538
2793 9669
2794 4826
2794 4837
2794 5058
2794 5845
2794 6027
2794 6033
2794 6275
2794 8057
2794 8923
2794 9330
2794 9801
2795 3431
2795 3438
2795 3598
2795 3913
2795 4988
2795 5213
2795 5440
2795 5534
2795 5772
2795 6418
2795 7053
2795 8658
2796 4626
2796 5898
2796 6178
2796 6864
2796 7093
2796 7458
2796 8251
2796 8273
2796 9237
2796 9968
2797 4536
2797 4721
2797 4762
2797 4861
2797 6543
2797 7023
2797 8113
2797 9003
2798 2813
2798 2838
2798 2955
2798 3254
2798 3344
2798 3866
2798 3924
2798 4148
2798 4425
2798 4823
2798 4905
2798 5060
2798 5120
2798 5671
2798 5748
2798 6034
2798 6190
2798 6263
2798 6386
2798 6844
2798 7216
2798 7559
2798 7664
2798 7672
2798 7775
2798 7851
2798 8183
2798 8467
2798 8716
2798 9026
2798 9816
2799 3922
2799 4541
2799 4698
2799 5760
2799 6207
2799 7448
2799 9215
2800 3779
2800 3939
2800 5406
2800 7662
2800 7935
2800 8183
2800 8222
2800 8484
2800 9091
2801 2934
2801 3157
2801 3276
2801 3295
2801 4741
2801 5756
2801 6983
2802 2816
2802 3073
2802 3477
2802 5056
2802 6279
2802 7156
2802 7364
2802 9437
2802 9654
2803 4124
2803 4137
2803 4861
2803 5098
2803 6745
2803 7300
2803 8486
2803 9161
2803 9289
2804 3478
2804 3494
2804 3561
2804 3732
2804 4116
2804 4496
2804 4786
2804 5508
2804 6252
2804 6824
2804 6913
2804 8034
2804 8281
2804 8346
2804 8465
2804 8879
2804 8882
2804 9290
2804 9431
2804 9795
2805 3295
2805 3382
2805 4044
2805 4235
2805 5101
2805 5172
2805 5487
2805 5510
2805 5618
2805 5759
2805 5835
2805 5902
2805 6033
2805 6247
2805 6970
2805 7462
2805 7664
2805 8537
2805 9009
2805 9322
2805 9725
2805 9731
2806 3210
2806 4816
2806 4943
2806 4947
2806 5019
2806 5076
2806 5246
2806 5389
2806 6068
2806 6364
2806 6574
2806 6867
2806 6945
2806 7261
2806 7714
2806 7946
2806 7985
2806 9678
2807 3013
2807 4727
2807 5642
2807 5792
2807 7407
2807 7656
2807 7949
2807 8274
2807 8447
2807 8721
2807 9841
2808 2893
2808 3629
2808 3776
2808 3936
2808 5171
2808 5683
2808 5827
2808 6503
2808 7185
2808 7262
2808 7308
2808 7481
2808 8103
2808 8138
2808 8144
2808 8233
2808 8648
2808 9017
2808 9940
2808 9962
2809 2955
2809 5057
2809 5577
2809 6039
2809 6688
2809 7103
2809 7986
2810 3219
2810 3972
2810 5936
2810 7914
2810 7969
2810 8021
2810 9974
2811 3071
2811 3176
2811 4608
2811 4764
2811 5776
2811 5873
2811 6837
2811 8057
2811 9860
2812 3886
2812 4287
2812 6085
2812 6593
2812 6940
2812 7035
2812 7081
2812 7199
2812 7550
2812 8780
2812 9820
2813 4425
2813 5481
2813 6560
2813 6844
2814 3144
2814 4145
2814 5335
2814 5678
2814 6830
2814 7762
2814 8905
2814 9367
2814 9398
2814 9914
2815 3281
2815 3295
2815 3597
2815 3939
2815 4047
2815 4166
2815 4308
2815 6780
2815 8271
2815 8695
2816 3188
2816 3379
2816 3616
2816 3810
2816 4028
2816 4641
2816 4643
2816 4685
2816 4864
2816 5104
2816 5344
2816 5503
2816 6310
2816 6666
2816 6839
2816 7049
2816 7072
2816 7416
2816 7937
2816 8006
2816 8619
2816 8650
2816 9022
2816 9199
2816 9293
2816 9554
2816 9888
2816 9889
2817 4262
2817 4471
2817 5791
2817 6252
2817 7835
2817 8568
2817 8777
2817 8890
2817 9564
2817 9649
2818 2937
2818 5688
2818 5816
2818 6516
2818 6704
2818 6919
2818 7539
2818 9438
2819 2963
2819 3283
2819 3331
2819 3869
2819 4227
2819 4936
2819 5704
2819 6820
2819 8148
2819 9180
2819 9538
2819 9640
2819 9907
2820 3019
2820 5231
2820 5323
2820 5803
2820 6535
2820 6869
2820 7361
2820 7660
2820 8230
2820 8286
2820 8395
2820 8455
2820 9931
2821 3068
2821 3627
2821 3837
2821 5099
2821 6625
2821 7230
2821 7401
2821 8946
2821 8987
2821 9173
2822 3191
2822 4589
2822 4725
2822 5309
2822 5538
2822 6554
2822 6846
2822 7602
2822 7977
2822 8294
2822 8500
2822 9275
2822 9530
2823 3136
2823 3280
2823 3650
2823 3718
2823 4684
2823 4993
2823 5058
2823 5288
2823 5493
2823 5663
2823 6438
2823 6945
2823 7365
2823 7552
2823 7904
2823 8277
2823 8658
2823 8974
2823 9323
2824 2908
2824 3018
2824 4692
2824 7129
2824 7267
2824 7751
2824 8059
2824 9042
2825 3072
2825 3115
2825 3488
2825 4811
2825 6421
2825 6568
2825 6681
2825 6719
2825 7689
2825 8777
2826 2983
2826 3233
2826 3359
2826 3652
2826 3681
2826 3979
2826 4357
2826 4645
2826 4698
2826 4763
2826 6098
2826 7974
2826 8861
2826 8973
2826 9077
2827 2833
2827 3247
2827 3255
2827 4194
2827 4268
2827 4368
2827 4442
2827 4514
2827 4901
2827 4997
2827 5055
2827 5076
2827 5397
2827 5558
2827 6180
2827 6267
2827 6285
2827 6608
2827 6693
2827 6705
2827 7536
2827 7831
2827 8281
2827 8348
2827 8431
2827 8657
2827 9054
2827 9137
2827 9728
2828 4081
2828 4384
2828 4912
2828 7200
2828 9752
2829 2929
2829 2946
2829 3175
2829 3316
2829 3534
2829 3584
2829 3860
2829 4749
2829 4782
2829 4867
2829 4902
2829 5774
2829 5815
2829 5983
2829 7183
2829 7274
2829 7358
2829 7635
2829 7831
2829 8284
2829 8730
2829 9015
2829 9498
2829 9593
2829 9691
2830 2964
2830 3201
2830 3634
2830 4480
2830 5167
2830 5312
2831 3002
2831 3608
2831 4629
2831 5572
2831 8074
2831 9077
2831 9371
2831 9565
2831 9763
2832 3293
2832 3990
2832 4229
2832 5202
2832 6147
2832 6310
2832 6634
2832 6703
2832 8470
2832 9354
2832 9686
2833 3067
2833 3255
2833 4325
2833 4368
2833 4514
2833 4610
2833 5199
2833 5489
2833 6167
2833 6705
2833 6714
2834 2897
2834 2979
2834 3496
2834 3566
2834 3581
2834 5078
2834 5398
2834 5704
2834 6578
2834 6762
2834 7181
2834 7706
2834 8461
2834 8565
2834 9259
2834 9707
2835 3210
2835 3942
2835 4823
2835 5006
2835 5248
2835 5859
2835 6530
2835 6831
2835 7471
2835 7742
2835 7916
2835 8035
2835 8296
2835 9024
2835 9472
2835 9534
2835 9541
2836 2951
2836 3525
2836 3570
2836 4004
2836 4525
2836 5810
2836 5891
2836 6741
2836 8703
2836 8826
2836 8938
2837 3351
2837 5465
2837 5489
2837 5558
2837 6482
2837 9450
2837 9755
2837 9856
2838 2916
2838 3118
2838 3158
2838 3516
2838 3584
2838 4039
2838 4505
2838 4531
2838 4765
2838 5031
2838 5551
2838 5592
2838 6030
2838 6031
2838 6198
2838 6445
2838 6499
2838 7252
2838 7668
2838 7853
2838 8207
2838 8550
2838 8620
2838 8685
2838 8832
2838 9035
2838 9092
2838 9735
2838 9904
2839 4476
2839 4677
2839 4744
2839 4883
2839 5158
2839 5339
2839 6298
2839 7328
2839 7972
2839 8050
2839 8195
2839 9385
2840 2956
2840 3138
2840 3291
2840 3334
2840 3829
2840 4070
2840 4246
2840 4329
2840 5366
2840 6081
2840 7183
2840 7346
2840 7866
2840 8782
2840 9257
2840 9538
2841 2956
2841 3196
2841 3263
2841 3767
2841 4067
2841 4197
2841 4507
2841 5002
2841 5019
2841 5936
2841 6514
2841 7430
2841 7543
2841 7597
2841 7685
2841 8407
2841 8670
2841 8721
2841 8794
2841 8943
2841 9099
2841 9119
2841 9201
2841 9562
2842 3014
2842 3031
2842 3304
2842 3536
2842 3811
2842 3963
2842 4296
2842 4888
2842 5225
2842 5941
2842 6469
2842 6481
2842 6959
2842 7111
2842 8382
2842 8480
2842 9097
2842 9154
2842 9460
2843 3236
2843 3873
2843 4536
2843 4935
2843 4998
2843 6429
2843 8527
2843 8653
2844 3689
2844 4493
2844 4846
2844 6792
2844 9769
2845 3225
2845 3455
2845 4704
2845 6097
2845 6280
2845 7403
2845 7425
2845 7616
2845 8826
2845 9299
2845 9658
2845 9895
2846 4442
2846 5372
2846 5414
2846 5615
2846 5915
2846 6629
2846 7665
2846 8102
2846 8405
2846 8700
2846 8915
2847 7403
2847 7713
2847 8033
2847 8059
2847 8798
2847 9047
2847 9152
2847 9485
2847 9688
2848 3249
2848 3518
2848 3538
2848 4142
2848 4238
2848 4886
2848 4951
2848 5971
2848 6379
2848 7270
2848 7276
2848 7371
2848 7393
2848 8228
2848 8486
2848 9170
2848 9935
2849 3491
2849 3877
2849 4070
2849 5435
2849 5681
2849 5930
2849 7341
2849 7779
2849 7817
2849 9207
2850 3635
2850 3793
2850 5081
2850 6359
2850 6592
2850 7808
2850 8565
2850 8961
2850 9921
2850 9968
2851 3244
2851 4462
2851 4788
2851 4962
2851 5075
2851 6448
2851 6698
2851 7420
2851 7462
2851 8014
2851 8426
2851 8489
2851 8563
2851 8706
2851 9339
2851 9718
2851 9829
2852 3474
2852 3480
2852 3582
2852 4754
2852 5195
2852 5404
2852 6462
2852 6586
2852 6915
2852 8388
2852 8394
2852 8622
2852 8891
2852 9620
2853 4538
2853 4917
2853 5751
2853 5878
2853 6451
2853 6726
2853 9415
2854 3899
2854 4174
2854 4396
2854 4606
2854 4749
2854 5558
2854 5784
2854 6447
2854 7047
2854 7451
2854 7452
2854 9552
2854 9811
2855 3068
2855 3746
2855 4424
2855 5186
2855 5355
2855 5455
2855 6065
2855 8654
2855 8868
2855 8952
2856 3178
2856 3439
2856 3551
2856 3804
2856 3896
2856 3985
2856 4833
2856 5769
2856 6166
2856 6403
2856 6946
2856 7182
2856 7198
2856 7721
2856 7825
2856 8042
2856 8634
2856 8644
2856 9581
2857 4757
2857 5025
2857 5955
2857 6545
2857 6763
2857 8341
2857 8878
2857 9098
2857 9162
2857 9513
2857 9861
2858 3726
2858 4252
2858 4524
2858 5000
2858 6433
2858 6727
2858 6845
2858 7216
2858 7896
2858 8228
2858 9915
2859 3864
2859 4146
2859 4247
2859 5339
2859 5851
2859 7424
2859 8873
2859 9612
2859 9794
2860 3075
2860 3222
2860 3670
2860 4150
2860 5682
2860 6208
2860 6368
2860 7467
2860 8200
2860 8513
2860 9598
2861 3102
2861 3104
2861 5169
2861 5464
2861 5633
2861 6700
2861 6937
2861 7025
2861 7566
2861 8180
2861 8669
2861 9029
2861 9237
2861 9766
2862 4026
2862 4170
2862 4550
2862 4619
2862 4764
2862 5498
2862 5749
2862 6632
2862 7505
2862 7519
2862 7555
2862 7689
2862 7987
2862 8882
2863 3043
2863 3102
2863 5397
2863 6741
2863 7386
2863 8126
2863 8310
2863 8768
2864 3323
2864 4882
2864 4885
2864 7717
2864 8243
2864 8403
2865 2889
2865 3158
2865 3516
2865 4038
2865 4120
2865 5538
2865 5846
2865 6600
2865 6621
2865 7230
2865 8455
2865 8634
2865 9532
2865 9612
2866 5464
2866 5541
2866 6761
2866 6933
2866 7757
2866 7964
2866 8058
2866 8329
2866 8728
2866 9343
2867 3133
2867 3345
2867 3746
2867 4122
2867 4146
2867 4232
2867 4594
2867 5089
2867 5213
2867 6387
2867 6388
2867 6852
2867 7070
2867 7157
2867 7604
2867 8266
2867 8458
2867 8471
2867 8533
2867 8782
2867 9396
2867 9720
2867 9888
2868 3509
2868 4005
2868 5710
2868 7089
2868 7510
2868 8234
2868 8417
2868 8541
2868 9640
2868 9832
2868 9919
2869 4602
2869 5366
2869 6359
2869 6967
2869 7460
2869 8513
2869 9266
2869 9283
2869 9600
2869 9787
2870 3162
2870 3252
2870 3273
2870 3920
2870 5287
2870 5458
2870 5535
2870 5561
2870 5771
2870 6046
2870 7094
2870 7380
2870 7500
2870 7524
2870 7848
2870 8010
2870 8202
2870 8377
2870 8742
2870 8991
2870 9373
2871 3165
2871 4500
2871 5658
2871 6477
2871 6489
2871 6959
2871 7061
2871 7063
2871 7341
2871 7504
2871 7762
2871 8468
2871 9273
2871 9436
2871 9756
2871 9916
2872 3135
2872 3715
2872 3976
2872 4229
2872 4343
2872 4462
2872 5282
2872 5377
2872 5540
2872 5542
2872 5794
2872 5863
2872 5930
2872 6197
2872 7012
2872 7293
2872 7579
2872 7746
2872 7749
2872 8744
2872 8784
2872 8854
2872 8860
2872 8925
2872 9626
2873 3702
2873 5609
2873 6034
2873 6223
2873 6321
2873 7246
2873 7897
2873 7929
2873 8471
2873 8669
2873 8739
2873 8891
2873 9382
2873 9704
2873 9909
2874 2943
2874 3101
2874 3142
2874 3490
2874 7564
2874 7661
2874 8442
2874 8618
2874 9019
2874 9778
2874 9995
2875 3112
2875 4809
2875 4901
2875 6005
2875 6997
2875 8091
2875 8615
2875 8696
2875 8717
2876 3217
2876 5079
2876 8152
2876 8467
2876 8820
2876 9552
2877 2889
2877 2931
2877 3700
2877 3969
2877 4085
2877 4647
2877 4854
2877 4867
2877 5016
2877 5083
2877 5224
2877 5279
2877 5302
2877 5996
2877 6158
2877 6349
2877 6508
2877 6866
2877 8014
2877 8200
2877 8225
2877 8806
2877 9045
2877 9219
2877 9356
2877 9739
2877 9861
2878 3188
2878 5272
2878 5344
2878 5697
2878 6361
2878 6436
2878 7746
2878 8943
2878 9287
2878 9396
2878 9806
2879 2938
2879 3143
2879 3589
2879 4415
2879 4576
2879 5551
2879 6510
2879 9654
2880 3208
2880 3989
2880 4652
2880 5008
2880 6305
2880 7633
2880 7859
2880 9174
2881 2964
2881 4409
2881 5049
2881 7972
2881 8205
2881 8474
2881 8677
2881 9009
2881 9364
2882 3354
2882 3711
2882 3775
2882 3819
2882 4458
2882 4593
2882 5761
2882 6393
2882 6408
2882 6628
2882 6915
2882 7308
2882 7806
2882 8100
2883 3073
2883 3269
2883 3397
2883 3907
2883 4497
2883 4862
2883 4885
2883 5648
2883 6116
2883 6139
2883 6190
2883 6268
2883 6371
2883 6463
2883 6591
2883 6993
2883 7114
2883 7360
2883 7396
2883 7595
2883 7701
2883 7915
2883 8148
2883 9630
2883 9968
2884 2899
2884 3031
2884 3722
2884 4096
2884 4116
2884 4626
2884 5615
2884 6438
2884 7486
2884 7537
2884 7842
2884 8279
2884 8395
2884 8629
2884 9357
2885 3231
2885 3641
2885 3952
2885 4045
2885 4581
2885 6341
2885 6432
2885 7063
2885 8280
2885 9650
2886 2943
2886 4053
2886 4188
2886 4542
2886 4686
2886 4726
2886 4907
2886 5331
2886 5555
2886 5649
2886 5887
2886 6013
2886 6096
2886 6469
2886 6960
2886 7170
2886 7199
2886 7237
2886 7326
2886 7355
2886 7614
2886 7811
2886 7983
2886 8289
2886 8336
2886 8686
2886 9006
2886 9025
2886 9540
2886 9904
2886 9911
2887 4151
2887 4470
2887 4854
2887 5958
2887 6024
2887 6857
2887 7626
2887 7751
2887 7805
2887 9176
2888 3946
2888 4259
2888 5050
2888 5580
2888 6451
2888 6492
2888 7259
2888 7660
2888 7883
2888 8103
2888 8698
2888 9033
2888 9124
2888 9607
2889 2957
2889 3248
2889 3433
2889 4296
2889 4357
2889 4540
2889 4639
2889 4719
2889 4857
2889 5322
2889 5421
2889 5422
2889 6265
2889 6415
2889 6617
2889 6647
2889 6675
2889 7185
2889 7719
2889 7739
2889 8291
2889 8560
2889 8713
2889 8774
2889 8845
2889 8901
2889 9404
2890 3019
2890 3886
2890 4313
2890 4810
2890 5056
2890 5490
2890 5492
2890 5659
2890 5740
2890 6062
2890 6135
2890 6328
2890 6358
2890 6802
2890 7594
2890 7625
2890 7780
2890 8104
2890 8892
2890 9173
2890 9275
2890 9293
2890 9376
2890 9689
2890 9858
2891 3295
2891 3324
2891 3726
2891 3773
2891 4178
2891 7419
2891 8086
2891 8936
2891 9198
2891 9204
2891 9986
2892 3191
2892 3910
2892 4124
2892 4435
2892 4741
2892 5384
2892 7397
2892 7475
2892 8070
2892 8680
2892 8834
2892 8906
2892 9273
2893 3108
2893 3721
2893 4577
2893 7035
2893 7593
2893 7820
2893 8377
2893 8423
2893 9428
2894 2962
2894 4044
2894 4165
2894 4757
2894 5165
2894 5458
2894 5783
2894 5902
2894 7261
2894 7323
2894 7889
2894 7966
2894 7993
2894 8012
2894 8751
2894 8887
2895 3107
2895 3431
2895 3596
2895 3805
2895 3839
2895 4253
2895 4473
2895 4535
2895 4576
2895 4871
2895 4901
2895 5002
2895 5176
2895 5250
2895 5493
2895 5588
2895 5703
2895 6435
2895 7002
2895 7431
2895 7645
2895 7776
2895 8082
2895 8334
2895 8372
2895 8614
2895 8885
2895 9248
2895 9472
2895 9778
2895 9870
2895 9933
2896 4785
2896 6166
2896 6555
2896 6804
2896 7784
2896 7935
2896 8688
2896 9712
2897 2981
2897 4011
2897 4031
2897 5014
2897 5404
2897 5427
2897 5597
2897 5806
2897 7519
2897 7572
2897 8195
2897 8198
2897 8328
2897 8457
2897 9253
2897 9301
2897 9499
2897 9609
2897 9658
2898 3097
2898 4576
2898 5846
2898 7461
2898 7716
2898 8357
2898 8448
2898 9444
2898 9533
2898 9853
2899 3372
2899 3597
2899 3807
2899 3966
2899 4305
2899 4611
2899 4922
2899 4938
2899 4958
2899 5980
2899 6097
2899 6389
2899 6919
2899 7044
2899 7068
2899 7274
2899 7803
2899 7808
2899 8169
2899 8375
2899 9486
2899 9639
2899 9848
2899 9915
2900 3176
2900 3384
2900 3426
2900 3596
2900 3832
2900 4209
2900 4465
2900 4559
2900 5078
2900 5104
2900 6357
2900 6923
2900 7964
2900 8445
2900 8541
2900 8722
2900 8897
2900 8982
2900 9387
2900 9602
2901 3802
2901 4249
2901 4334
2901 5818
2901 6600
2901 7722
2901 8026
2901 8934
2901 8943
2901 8946
2902 2912
2902 3382
2902 4454
2902 4555
2902 5058
2902 5498
2902 5598
2902 5854
2902 6461
2902 6882
2902 6935
2902 7135
2902 7603
2902 7699
2902 8290
2902 8947
2902 9280
2902 9881
2903 3059
2903 4383
2903 4667
2903 5410
2903 5483
2903 5786
2903 5888
2903 6768
2903 7107
2903 7391
2903 7501
2903 7667
2903 8073
2903 8172
2903 9662
2903 9681
2904 3014
2904 3267
2904 3282
2904 4091
2904 4615
2904 4794
2904 4926
2904 5513
2904 5633
2904 5936
2904 8606
2904 9292
2904 9687
2905 3778
2905 4705
2905 5856
2905 6128
2905 6307
2905 7211
2905 7279
2905 7580
2905 7683
2905 8074
2905 8412
2905 8534
2905 8931
2905 9061
2906 3166
2906 3349
2906 3550
2906 3785
2906 3927
2906 4198
2906 4518
2906 4590
2906 4704
2906 5205
2906 5955
2906 6061
2906 6089
2906 6396
2906 7011
2906 7041
2906 8053
2906 8144
2906 8422
2906 8665
2906 9037
2906 9235
2906 9379
2906 9863
2907 2993
2907 3122
2907 4195
2907 5657
2907 6199
2907 7255
2907 7317
2907 7472
2907 7810
2907 8256
2907 8424
2907 8493
2907 8630
2907 8746
2907 9099
2908 3100
2908 3619
2908 3758
2908 3931
2908 4106
2908 4380
2908 4382
2908 5045
2908 5132
2908 5251
2908 5467
2908 5667
2908 6030
2908 6213
2908 6638
2908 6791
2908 6793
2908 7343
2908 8096
2908 8368
2908 9096
2908 9237
2908 9334
2908 9493
2908 9531
2909 3089
2909 3491
2909 7599
2909 7730
2909 8261
2909 8342
2909 8360
2909 9471
2910 2933
2910 3867
2910 4589
2910 5473
2910 5886
2910 6031
2910 6554
2910 6994
2910 7363
2910 7602
2910 7980
2910 8875
2910 9543
2911 2998
2911 3051
2911 3140
2911 3229
2911 3324
2911 3796
2911 3914
2911 4455
2911 5306
2911 5318
2911 5593
2911 5715
2911 5989
2911 6433
2911 6608
2911 6625
2911 6868
2911 6966
2911 7046
2911 7074
2911 7579
2911 7625
2911 7987
2911 7990
2911 8245
2911 8446
2911 8707
2911 9211
2911 9311
2912 3271
2912 4164
2912 6460
2912 7308
2912 7485
2912 7603
2912 7604
2912 9723
2913 4517
2913 4847
2913 5280
2913 5782
2913 7002
2913 7018
2913 7513
2913 7644
2913 7774
2913 7965
2913 8307
2913 8715
2913 9623
2913 9674
2913 9990
2914 4694
2914 4915
2914 5918
2914 6149
2914 6521
2914 6530
2914 7071
2914 7287
2914 8839
2915 2925
2915 2960
2915 3124
2915 3429
2915 3540
2915 3657
2915 3660
2915 3859
2915 3940
2915 4057
2915 4404
2915 5032
2915 5277
2915 5331
2915 5403
2915 5613
2915 6460
2915 7010
2915 7783
2915 7884
2915 8019
2915 8111
2915 8324
2915 8859
2915 8891
2915 9028
2915 9030
2916 3379
2916 3529
2916 3584
2916 3914
2916 4210
2916 4396
2916 4675
2916 4904
2916 4940
2916 5704
2916 5991
2916 6250
2916 6472
2916 6982
2916 7051
2916 7163
2916 7235
2916 7875
2916 8029
2916 8194
2916 8335
2916 8687
2916 9477
2916 9810
2916 9977
2917 3146
2917 3711
2917 3790
2917 3836
2917 4538
2917 6405
2917 6790
2917 7721
2917 7893
2917 8222
2917 8446
2917 8742
2917 9338
2918 3710
2918 4310
2918 5700
2918 5755
2918 6251
2918 7045
2918 8372
2918 9137
2918 9879
2919 3500
2919 3512
2919 4553
2919 5662
2919 6012
2919 8255
2919 8625
2919 9903
2920 3619
2920 4113
2920 4682
2920 4804
2920 5058
2920 5525
2920 5551
2920 6054
2920 8134
2920 8172
2920 8777
2921 3477
2921 3546
2921 4307
2921 4587
2921 4794
2921 5036
2921 5843
2921 6612
2921 6857
2921 6986
2922 3668
2922 9046
2923 3429
2923 4199
2923 4502
2923 4558
2923 4605
2923 5150
2923 5185
2923 5219
2923 5632
2923 7053
2923 8505
2923 8814
2923 8867
2923 9423
2924 3206
2924 3667
2924 3711
2924 4551
2924 5243
2924 5758
2924 6058
2924 6946
2925 2986
2925 3017
2925 3032
2925 3161
2925 3289
2925 3533
2925 3823
2925 3849
2925 4426
2925 4760
2925 4833
2925 5147
2925 5676
2925 5678
2925 5929
2925 6367
2925 6510
2925 6589
2925 6926
2925 7674
2925 7758
2925 7881
2925 7896
2925 7954
2925 7979
2925 8759
2925 9266
2925 9345
2925 9473
2925 9810
2926 3567
2926 3588
2926 5128
2926 5767
2926 6055
2926 6571
2926 6693
2926 9805
2926 9930
2927 3507
2927 3928
2927 4677
2927 4933
2927 5218
2927 5786
2927 9209
2928 3064
2928 4378
2928 4852
2928 5847
2928 6142
2928 6303
2928 6609
2928 6812
2928 6833
2928 8820
2928 9031
2928 9121
2928 9415
2929 3077
2929 3574
2929 3742
2929 3890
2929 4105
2929 4507
2929 4587
2929 5200
2929 5243
2929 5547
2929 5625
2929 5877
2929 6259
2929 6264
2929 6471
2929 6628
2929 6821
2929 7082
2929 7207
2929 7271
2929 7581
2929 7642
2929 7789
2929 7833
2929 7867
2929 8464
2929 8672
2929 8946
2929 9312
2929 9404
2929 9700
2930 3206
2930 3811
2930 3934
2930 4017
2930 4750
2930 4757
2930 5489
2930 5704
2930 5977
2930 6108
2930 6282
2930 8288
2930 8312
2930 8489
2930 8765
2930 8960
2930 9143
2930 9277
2930 9971
2931 3477
2931 3635
2931 4128
2931 5310
2931 5999
2931 6298
2931 7426
2931 7578
2931 7667
2931 8173
2931 9137
2931 9950
2932 3208
2932 3439
2932 4732
2932 4887
2932 5668
2932 6130
2932 6948
2932 7636
2932 7964
2932 8629
2932 9920
2933 3692
2933 4472
2933 5588
2933 6080
2933 6689
2933 6792
2933 8048
2933 8230
2933 8432
2933 9132
2933 9443
2933 9508
2934 3157
2934 3304
2934 3735
2934 3917
2934 4005
2934 4055
2934 4187
2934 4461
2934 4531
2934 4741
2934 4776
2934 5756
2934 6983
2934 7093
2934 8234
2934 8668
2934 8777
2934 8981
2934 9360
2934 9656
2935 4006
2935 4097
2935 4372
2935 4733
2935 4739
2935 4954
2935 5286
2935 6067
2935 6141
2935 6191
2935 6872
2935 6897
2935 6999
2935 7352
2935 7491
2935 7643
2935 7706
2935 8639
2936 3038
2936 3797
2936 4780
2936 5005
2936 5205
2936 6486
2936 6820
2936 7566
2936 7708
2936 7763
2936 7994
2936 8032
2936 8379
2936 8452
2936 8591
2936 9134
2936 9364
2936 9685
2936 9893
2936 9987
2936 9997
2937 3740
2937 3790
2937 5595
2937 5822
2937 6178
2937 6313
2937 6610
2937 6704
2937 6746
2937 6958
2937 6959
2937 7298
2937 7430
2937 7478
2937 7504
2937 8238
2937 8346
2937 9011
2937 9290
2937 9413
2937 9438
2937 9516
2937 9934
2938 3665
2938 3671
2938 3822
2938 3915
2938 4031
2938 4287
2938 4417
2938 4533
2938 4575
2938 4632
2938 4932
2938 5540
2938 5874
2938 5894
2938 6036
2938 6602
2938 6630
2938 6959
2938 7117
2938 7326
2938 7360
2938 7668
2938 8178
2938 8200
2938 8245
2938 8554
2938 8900
2938 8933
2938 9224
2938 9282
2939 2948
2939 3198
2939 3445
2939 4190
2939 4366
2939 5100
2939 5215
2939 5780
2939 5810
2939 6236
2939 6984
2939 7021
2939 7168
2939 7961
2939 9689
2940 3089
2940 3685
2940 3687
2940 3780
2940 4188
2940 4625
2940 4678
2940 4815
2940 4833
2940 5028
2940 5089
2940 5671
2940 5687
2940 6846
2940 6971
2940 7178
2940 7194
2940 7448
2940 8037
2940 8070
2940 8876
2940 8953
2940 9232
2940 9546
2940 9814
2940 9846
2940 9860
2941 4276
2941 5673
2941 6524
2941 6909
2941 7867
2941 8109
2941 8476
2941 9389
2942 3205
2942 3411
2942 4806
2942 6867
2942 6925
2942 8477
2942 8539
2942 9187
2942 9998
2943 3111
2943 3490
2943 4998
2943 5237
2943 6185
2943 6546
2943 7714
2943 9019
2943 9345
2943 9605
2943 9995
2944 3295
2944 3316
2944 5039
2944 5620
2944 6570
2944 6929
2944 7493
2944 7498
2944 7840
2944 8117
2944 8302
2944 9041
2944 9663
2945 3726
2945 4111
2945 4252
2945 4801
2945 5096
2945 5582
2945 7725
2945 8935
2945 8940
2945 9666
2945 9915
2946 3458
2946 3835
2946 3976
2946 4394
2946 5472
2946 5813
2946 5826
2946 6015
2946 6523
2946 6953
2946 7415
2946 7624
2946 7630
2946 7814
2946 8459
2946 9026
2946 9098
2946 9107
2946 9386
2946 9555
2946 9817
2946 9975
2947 3903
2947 4211
2947 4574
2947 4845
2947 5927
2947 6685
2947 6858
2947 7439
2947 7698
2947 7769
2947 7913
2947 9086
2948 3039
2948 3423
2948 3770
2948 3787
2948 4257
2948 4294
2948 4322
2948 4545
2948 4831
2948 5046
2948 5199
2948 5339
2948 5457
2948 5961
2948 5999
2948 6093
2948 6272
2948 6442
2948 6521
2948 6554
2948 6593
2948 6719
2948 6777
2948 7321
2948 7369
2948 7560
2948 7878
2948 8346
2948 8884
2948 8998
2948 9058
2948 9294
2949 3414
2949 4344
2949 5252
2949 6031
2949 7609
2949 8321
2949 8666
2950 3799
2950 4916
2950 5610
2950 7135
2950 7947
2950 8031
2950 8234
2950 9754
2951 3353
2951 3380
2951 3642
2951 3863
2951 4351
2951 4369
2951 4596
2951 4907
2951 5942
2951 6840
2951 7038
2951 7244
2951 7473
2951 7532
2951 7659
2951 7741
2951 8444
2951 8469
2951 8746
2951 8766
2951 9200
2951 9444
2951 9559
2951 9933
2952 3556
2952 3607
2952 5210
2952 5341
2952 5566
2952 6410
2952 6945
2952 7749
2952 8581
2952 9059
2952 9553
2952 9701
2953 3103
2953 3381
2953 3435
2953 3548
2953 3745
2953 3875
2953 3889
2953 4082
2953 4254
2953 4607
2953 4632
2953 5351
2953 5446
2953 5926
2953 6559
2953 6604
2953 7162
2953 7282
2953 7333
2953 7384
2953 7415
2953 7747
2953 8060
2953 8095
2953 8100
2953 8148
2953 8722
2953 9266
2953 9357
2953 9360
2953 9399
2954 3041
2954 4161
2954 4472
2954 4752
2954 5103
2954 5228
2954 5510
2954 5807
2954 5810
2954 5944
2954 6967
2954 8117
2954 8664
2954 9419
2954 9422
2955 3423
2955 3918
2955 6602
2955 6654
2955 8119
2955 8140
2955 9618
2955 9855
2956 4463
2956 4671
2956 4985
2956 5280
2956 5854
2956 7685
2956 7831
2956 8068
2956 8794
2956 8828
2956 9261
2956 9501
2957 3498
2957 3661
2957 4059
2957 4376
2957 4540
2957 4683
2957 6150
2957 6333
2957 6415
2957 6936
2958 3275
2958 4001
2958 5146
2958 5728
2958 6285
2958 6564
2958 6791
2958 7085
2958 7185
2958 9869
2959 3104
2959 3268
2959 3783
2959 3975
2959 4296
2959 4670
2959 5633
2959 5886
2959 6691
2959 6700
2959 7074
2959 7202
2959 7566
2959 8580
2960 3035
2960 4132
2960 4137
2960 5279
2960 6601
2960 6749
2961 4122
2961 4707
2961 5581
2961 6183
2961 6439
2961 7172
2961 7265
2961 7338
2961 8401
2961 8561
2961 8645
2961 9447
2962 2992
2962 3418
2962 3556
2962 3666
2962 3803
2962 4045
2962 4386
2962 4396
2962 4405
2962 4554
2962 4901
2962 4911
2962 5234
2962 5267
2962 5276
2962 5578
2962 5737
2962 5779
2962 6052
2962 6137
2962 6341
2962 6384
2962 7369
2962 8564
2962 8603
2962 8817
2962 9121
2962 9459
2962 9496
2962 9614
2962 9631
2962 9731
2963 3118
2963 3232
2963 3329
2963 3900
2963 4107
2963 4250
2963 4622
2963 4679
2963 5293
2963 5715
2963 6369
2963 6556
2963 6967
2963 6970
2963 7047
2963 7061
2963 7276
2963 7806
2963 8495
2963 8509
2963 8986
2963 9012
2963 9178
2963 9584
2963 9976
2964 4704
2964 4970
2964 5312
2964 5319
2964 5443
2964 5499
2964 5574
2964 6732
2964 7794
2964 9938
2965 3098
2965 3474
2965 3605
2965 3736
2965 4065
2965 4114
2965 5171
2965 5463
2965 5924
2965 6163
2965 6435
2965 7024
2965 7603
2965 7831
2965 7859
2965 8388
2965 8405
2965 8617
2965 9207
2965 9358
2965 9383
2965 9515
2965 9634
2965 9691
2965 9802
2966 3063
2966 3600
2966 4241
2966 4490
2966 4635
2966 4817
2966 5354
2966 5356
2966 5873
2966 6022
2966 6055
2966 6253
2966 6285
2966 6752
2966 6834
2966 7283
2966 8005
2966 8303
2966 8366
2966 8368
2966 8878
2966 8996
2966 9218
2966 9390
2966 9445
2966 9568
2966 9603
2967 3342
2967 4376
2967 4603
2967 5277
2967 5361
2967 8558
2967 9476
2968 3169
2968 3612
2968 3850
2968 3906
2968 4240
2968 4791
2968 5637
2968 5660
2968 6123
2968 6255
2968 9555
2968 9721
2968 9740
2969 3018
2969 3042
2969 3093
2969 3437
2969 3525
2969 3591
2969 3790
2969 3808
2969 4502
2969 4535
2969 4954
2969 5121
2969 5314
2969 5498
2969 5572
2969 6010
2969 6432
2969 6586
2969 7158
2969 7204
2969 7279
2969 7670
2969 7748
2969 7952
2969 8145
2969 8217
2969 8943
2969 9298
2969 9412
2969 9537
2969 9757
2969 9843
2969 9885
2970 3067
2970 3367
2970 3817
2970 4211
2970 4348
2970 4367
2970 4465
2970 4985
2970 5334
2970 5507
2970 5543
2970 5623
2970 5682
2970 6337
2970 6396
2970 6460
2970 6555
2970 6939
2970 7804
2970 7920
2970 8204
2970 8531
2970 8561
2970 9523
2970 9797
2971 3837
2971 4570
2971 4580
2971 7910
2972 3008
2972 3098
2972 3552
2972 3736
2972 4331
2972 7608
2972 7954
2972 8388
2972 8763
2972 9339
2972 9750
2973 3361
2973 3502
2973 3658
2973 3780
2973 3891
2973 3912
2973 4209
2973 4425
2973 4475
2973 4652
2973 4675
2973 4779
2973 5105
2973 5344
2973 5422
2973 5682
2973 6023
2973 6573
2973 6730
2973 6970
2973 7382
2973 8601
2973 8754
2973 9013
2973 9151
2973 9284
2973 9497
2973 9692
2973 9748
2973 9808
2973 9879
2973 9954
2974 3642
2974 3665
2974 4281
2974 4380
2974 4956
2974 5449
2974 7449
2974 8728
2974 8849
2974 9865
2975 3087
2975 3127
2975 3192
2975 3302
2975 3543
2975 4549
2975 5225
2975 5936
2975 6519
2975 7236
2975 7717
2975 9171
2975 9241
2975 9661
2976 3008
2976 3302
2976 4549
2976 4725
2976 6310
2976 7034
2976 7236
2976 7605
2976 7838
2976 8028
2976 8737
2976 9241
2976 9906
2977 3084
2977 3207
2977 3344
2977 3526
2977 4197
2977 4345
2977 4450
2977 4470
2977 4741
2977 5378
2977 5445
2977 5799
2977 5857
2977 5955
2977 5971
2977 5974
2977 6269
2977 6314
2977 6488
2977 7000
2977 7125
2977 7205
2977 7476
2977 7696
2977 8179
2977 8280
2977 8612
2977 8739
2977 8859
2977 9259
2977 9326
2977 9497
2977 9549
2977 9740
2977 9850
2977 9926
2977 9990
2978 6635
2978 7556
2978 7578
2978 7661
2978 8364
2978 8455
2978 8926
2978 9715
2979 3574
2979 3973
2979 4094
2979 4431
2979 4571
2979 4910
2979 5366
2979 5503
2979 5766
2979 6117
2979 6951
2979 7087
2979 7172
2979 7615
2979 8045
2979 8358
2979 8614
2979 8710
2979 8926
2979 9222
2980 2987
2980 3790
2980 5186
2980 5887
2980 5962
2980 6895
2980 7560
2980 7630
2980 8446
2980 8473
2980 9670
2981 4315
2981 4361
2981 4593
2981 4714
2981 5061
2981 5099
2981 6377
2981 6418
2981 6567
2981 7677
2981 8219
2981 8243
2981 8977
2981 9479
2981 9486
2981 9543
2982 4263
2982 4578
2982 4702
2982 4899
2982 5661
2982 5707
2982 5944
2982 7278
2982 9975
2983 4341
2983 4645
2983 4698
2983 4935
2983 4981
2983 5108
2983 5493
2983 6138
2983 6635
2983 6906
2983 6935
2983 7974
2983 9094
2983 9232
2983 9372
2983 9408
2983 9635
2983 9667
2984 4198
2984 4940
2984 5229
2984 5345
2984 7489
2984 8122
2984 9046
2984 9195
2984 9383
2985 3100
2985 3565
2985 3924
2985 5091
2985 6104
2985 6622
2985 6697
2985 6998
2985 7504
2985 9594
2985 9968
2986 3329
2986 3533
2986 4476
2986 5851
2986 7896
2986 7973
2986 9808
2986 9908
2987 4826
2987 4879
2987 5612
2987 5805
2987 5927
2987 6410
2987 6663
2988 3110
2988 3215
2988 4204
2988 4781
2988 5261
2988 7455
2988 7667
2988 7893
2989 3183
2989 4162
2989 6630
2989 7009
2989 7155
2989 8507
2990 3041
2990 3490
2990 3563
2990 3613
2990 7358
2990 7540
2991 5315
2991 6044
2991 8116
2991 9871
2992 3171
2992 3493
2992 3797
2992 4991
2992 5368
2992 6912
2992 7078
2992 7261
2992 8223
2992 8389
2992 8491
2992 8672
2992 8731
2992 9329
2993 3008
2993 3114
2993 3316
2993 3404
2993 3464
2993 3500
2993 3506
2993 3652
2993 4015
2993 4062
2993 4195
2993 4265
2993 4518
2993 5066
2993 5319
2993 5502
2993 6544
2993 7317
2993 7419
2993 7431
2993 7472
2993 7725
2993 8424
2993 8493
2993 9034
2994 3169
2994 3729
2994 3873
2994 3881
2994 3897
2994 3914
2994 4037
2994 4155
2994 4241
2994 4253
2994 4717
2994 5026
2994 5475
2994 5568
2994 5652
2994 5868
2994 6211
2994 6399
2994 6805
2994 6873
2994 6950
2994 7838
2994 8349
2994 8447
2994 8905
2994 9229
2994 9626
2995 4087
2995 4441
2995 4890
2995 5478
2995 6100
2995 6196
2995 6423
2995 7657
2995 8695
2995 9153
2995 9522
2995 9902
2996 3184
2996 3432
2996 5907
2996 5992
2996 6842
2996 6994
2996 7116
2996 8613
2996 9416
2996 9489
2997 3142
2997 4004
2997 4177
2997 7119
2997 8318
2997 8422
2997 8936
2997 9055
2998 3748
2998 4362
2998 6499
2998 6986
2998 7762
2998 8522
2998 8881
2999 4165
2999 4479
2999 5344
2999 5485
2999 7907
2999 8839
2999 9327
3000 3368
3000 3709
3000 3722
3000 3819
3000 4080
3000 4166
3000 4223
3000 4367
3000 4503
3000 4520
3000 4989
3000 5511
3000 5609
3000 5641
3000 5999
3000 6026
3000 6181
3000 6368
3000 7167
3000 7694
3000 7706
3000 7765
3000 8312
3000 9380
3000 9430
3000 9543
3000 9722
3001 3633
3001 4356
3001 4453
3001 5320
3001 5455
3001 6414
3001 6713
3001 7090
3001 7963
3002 3413
3002 3888
3002 4913
3002 5433
3002 5588
3002 5649
3002 5764
3002 6242
3002 7286
3002 8718
3002 8841
3002 9480
3002 9519
3002 9536
3002 9743
3003 3017
3003 3033
3003 4532
3003 4940
3003 6062
3003 6666
3003 6733
3003 6755
3003 7413
3003 7834
3003 7915
3003 8531
3004 3477
3004 3790
3004 4129
3004 4131
3004 4199
3004 5969
3004 7089
3004 7156
3004 7433
3004 9797
3005 3099
3005 3455
3005 3483
3005 3972
3005 4949
3005 5194
3005 6060
3005 6483
3005 6914
3005 7034
3005 7246
3005 7430
3005 7726
3005 8345
3005 9234
3005 9485
3005 9970
3006 3962
3006 8173
3006 8565
3006 9260
3006 9330
3007 4030
3007 5536
3007 8330
3008 3515
3008 3737
3008 3772
3008 3793
3008 3908
3008 4392
3008 4429
3008 4461
3008 4513
3008 4525
3008 5045
3008 5395
3008 5587
3008 5854
3008 5855
3008 5981
3008 6180
3008 6712
3008 7037
3008 7146
3008 7534
3008 7744
3008 7895
3008 8064
3008 8203
3008 8672
3008 8681
3008 8918
3008 8928
3008 8943
3008 9009
3008 9409
3008 9816
3008 9847
3009 4788
3009 5133
3009 5159
3009 6161
3009 6543
3009 7485
3009 7888
3009 8319
3010 3730
3010 5780
3010 6033
3010 8118
3010 8178
3010 8970
3010 9378
3011 3095
3011 3099
3011 3839
3011 6988
3011 7370
3011 7812
3011 9295
3011 9561
3011 9753
3012 3878
3012 4250
3012 4290
3012 4573
3012 4593
3012 4845
3012 5616
3012 6408
3012 7027
3012 7247
3012 7359
3012 7439
3012 7913
3012 8077
3012 8862
3012 8956
3012 9377
3012 9544
3013 3464
3013 4208
3013 4351
3013 4956
3013 5558
3013 5890
3013 6257
3013 7634
3013 7745
3013 8925
3014 3304
3014 3330
3014 3599
3014 4211
3014 4305
3014 4425
3014 4607
3014 5941
3014 6034
3014 6222
3014 6469
3014 7600
3014 7865
3014 8949
3014 9500
3014 9506
3014 9617
3015 3182
3015 7108
3015 7228
3015 7924
3015 8016
3015 9622
3016 3467
3016 3519
3016 4516
3016 5154
3016 5263
3016 5456
3016 5765
3016 5918
3016 5934
3016 6740
3016 7227
3016 7549
3016 7673
3016 8742
3016 8917
3016 9566
3016 9858
3017 3411
3017 4064
3017 5495
3017 6184
3017 7915
3017 8716
3017 9366
3017 9401
3018 3812
3018 4801
3018 5647
3018 6649
3018 6777
3018 6919
3018 7214
3018 8228
3018 8302
3018 9500
3019 3571
3019 3659
3019 4112
3019 5198
3019 5338
3019 8705
3019 8835
3019 8956
3020 3367
3020 3874
3020 4347
3020 4974
3020 5277
3020 5470
3020 5564
3020 5571
3020 5669
3020 5775
3020 5957
3020 6340
3020 6416
3020 6428
3020 6484
3020 6675
3020 6799
3020 7063
3020 7256
3020 7297
3020 7554
3020 8205
3020 8236
3020 8354
3020 8478
3020 8727
3020 9204
3020 9721
3020 9741
3020 9829
3021 3370
3021 3559
3021 6440
3021 7397
3021 8648
3021 8724
3021 8809
3021 9647
3022 3081
3022 3179
3022 3483
3022 3789
3022 4003
3022 4257
3022 4290
3022 4371
3022 4533
3022 4657
3022 4870
3022 5243
3022 5272
3022 5319
3022 5472
3022 6312
3022 6512
3022 7638
3022 7803
3022 8245
3022 8547
3022 8661
3022 8923
3022 9181
3022 9496
3022 9991
3023 3250
3023 4303
3023 4785
3023 5668
3023 6979
3023 7501
3023 7505
3023 7526
3023 7716
3023 8191
3023 8278
3023 9256
3024 3283
3024 3331
3024 4020
3024 4936
3024 5038
3024 8227
3024 8250
3024 8964
3024 9273
3024 9432
3024 9948
3024 9951
3025 3830
3025 4045
3025 4436
3025 5082
3025 7346
3025 8535
3025 9413
3025 9853
3026 3102
3026 3843
3026 4138
3026 5103
3026 9114
3026 9281
3027 3031
3027 3879
3027 5498
3027 5701
3027 6373
3027 6621
3027 6682
3027 6996
3027 7192
3027 8194
3027 8230
3027 9469
3027 9699
3027 9709
3027 9737
3027 9798
3028 3693
3028 4750
3028 6203
3028 6612
3028 6705
3028 7354
3028 7790
3028 7793
3028 8011
3028 8806
3028 9447
3029 3038
3029 5550
3029 5739
3029 5978
3029 5990
3029 6205
3029 7347
3029 7615
3029 7781
3029 7846
3029 7879
3029 8554
3029 9033
3029 9630
3029 9696
3029 9802
3030 3224
3030 3568
3030 5549
3030 5976
3030 6752
3030 8184
3030 8442
3031 3252
3031 3662
3031 3858
3031 3879
3031 5497
3031 7757
3031 9699
3031 9798
3032 3640
3032 4143
3032 5150
3032 8484
3032 8680
3032 9772
3033 3256
3033 4162
3033 4239
3033 4699
3033 4911
3033 5693
3033 6013
3033 6377
3033 6544
3033 9675
3034 5085
3034 5386
3034 5605
3034 6375
3034 6991
3034 7130
3034 7800
3035 3154
3035 3599
3035 3637
3035 3724
3035 3847
3035 4470
3035 4702
3035 4813
3035 5119
3035 5253
3035 5320
3035 5428
3035 5692
3035 5770
3035 6150
3035 6248
3035 6506
3035 6782
3035 6817
3035 7075
3035 8099
3035 8868
3035 9046
3035 9451
3036 3700
3036 4013
3036 4041
3036 4302
3036 5075
3036 5399
3036 5782
3036 6354
3036 6365
3036 8580
3036 8785
3036 9104
3037 4303
3037 4760
3037 4970
3037 5148
3037 5548
3037 5782
3037 6042
3037 6761
3037 7505
3037 8755
3037 9325
3038 3571
3038 3588
3038 3901
3038 4890
3038 6426
3038 8638
3039 3357
3039 4545
3039 4761
3039 6511
3039 7261
3039 8174
3039 8422
3039 8486
3039 8998
3039 9193
3039 9218
3040 5051
3040 5181
3040 5221
3040 6365
3040 6664
3040 7694
3040 8724
3040 8791
3040 9168
3040 9234
3041 3563
3041 4577
3041 5577
3041 5588
3041 6561
3041 6626
3041 8729
3041 9147
3041 9553
3042 3365
3042 3525
3042 4502
3042 4677
3042 5111
3042 5294
3042 7453
3042 7748
3042 8103
3042 8217
3042 8422
3042 8760
3042 8808
3042 9204
3043 3810
3043 3820
3043 4240
3043 5151
3043 6585
3043 6926
3043 8422
3043 9266
3044 3427
3044 3434
3044 4175
3044 4461
3044 6744
3044 8295
3044 8352
3044 8467
3044 8775
3044 8951
3044 8962
3045 3832
3045 4386
3045 4420
3045 4545
3045 6280
3045 6289
3045 6771
3045 6888
3045 7301
3045 7437
3045 8158
3045 8972
3045 9180
3045 9596
3046 4240
3046 5764
3046 5891
3046 6632
3046 6649
3046 7592
3046 8145
3046 8929
3046 9102
3046 9974
3047 4267
3047 4307
3047 5707
3047 5883
3047 6057
3047 6083
3047 6846
3047 6934
3047 7225
3047 7812
3047 7951
3047 8329
3047 8407
3047 9199
3047 9605
3047 9799
3047 9913
3048 3291
3048 3334
3048 3418
3048 4753
3048 4856
3048 7740
3048 8117
3048 8160
3048 8205
3048 9121
3049 4317
3049 4634
3049 4881
3049 5209
3049 6213
3049 9955
3050 5039
3050 5483
3050 5801
3050 5865
3050 5980
3050 6083
3050 7648
3050 8191
3050 8990
3050 9482
3051 3796
3051 3982
3051 4455
3051 5306
3051 5593
3051 6482
3051 6505
3051 7593
3051 8004
3051 8500
3051 8876
3051 9453
3052 3067
3052 3095
3052 4970
3052 5005
3052 5242
3052 5302
3052 6331
3052 6470
3052 6569
3052 7017
3052 7704
3052 8466
3052 9883
3053 5606
3053 6022
3053 6331
3053 7033
3053 7405
3053 7479
3053 8798
3053 9052
3053 9502
3053 9549
3053 9621
3054 3495
3054 4138
3054 4273
3054 4624
3054 4626
3054 5435
3054 7655
3054 7662
3054 7891
3054 8587
3055 3093
3055 3309
3055 3380
3055 3971
3055 4146
3055 4563
3055 4592
3055 4923
3055 5514
3055 5548
3055 5636
3055 6153
3055 6234
3055 6694
3055 6875
3055 7047
3055 7053
3055 7109
3055 7229
3055 7292
3055 7490
3055 7563
3055 7664
3055 8042
3055 9115
3055 9291
3055 9857
3056 4134
3056 4291
3056 4637
3056 4863
3056 4965
3056 6115
3056 6198
3056 6414
3056 8632
3056 8695
3056 9072
3057 3608
3057 4427
3057 4935
3057 5094
3057 6232
3057 8439
3057 9070
3057 9191
3057 9763
3058 4436
3058 6053
3058 6859
3058 7193
3058 7816
3058 8494
3059 3990
3059 4165
3059 5016
3059 5096
3059 5448
3059 6433
3059 8839
3059 9646
3059 9649
3060 4436
3060 5702
3060 7054
3060 7999
3060 8561
3060 8564
3060 8829
3061 3718
3061 3926
3061 4174
3061 5037
3061 5770
3061 6198
3061 7397
3061 7554
3061 8047
3061 8639
3061 8668
3061 8982
3062 3439
3062 4064
3062 4970
3062 6559
3062 6669
3062 6950
3062 7437
3062 8653
3062 8990
3062 9667
3063 3332
3063 4061
3063 4395
3063 5851
3063 7197
3063 8391
3063 8583
3063 8743
3063 8749
3063 9130
3063 9375
3063 9640
3064 4233
3064 4863
3064 5009
3064 5495
3064 6201
3064 7379
3064 7435
3064 7666
3064 7867
3064 8733
3064 9134
3064 9185
3064 9799
3065 3260
3065 3509
3065 4344
3065 6684
3065 6910
3065 7308
3065 7405
3065 7789
3065 7938
3065 8138
3065 8459
3065 9325
3065 9931
3066 4495
3066 4556
3066 6051
3066 6129
3066 8660
3066 9014
3066 9644
3067 3158
3067 3834
3067 4223
3067 4348
3067 4367
3067 5067
3067 5682
3067 6555
3067 8531
3068 3859
3068 4788
3068 4903
3068 5115
3068 5219
3068 5413
3068 5812
3068 6186
3068 6231
3068 6332
3068 6533
3068 6651
3068 6726
3068 7154
3068 7175
3068 7332
3068 7528
3068 7932
3068 8339
3068 8342
3068 8579
3068 8616
3068 9014
3068 9375
3068 9747
3068 9947
3069 3299
3069 3782
3069 5277
3069 5747
3069 7043
3069 7207
3069 9270
3069 9547
3069 9900
3069 9998
3070 3299
3070 3457
3070 4164
3070 4428
3070 5031
3070 5416
3070 6032
3070 8310
3070 8422
3070 9134
3070 9340
3070 9485
3070 9827
3071 3176
3071 3301
3071 3480
3071 4330
3071 4526
3071 4626
3071 4697
3071 4811
3071 4856
3071 5419
3071 6009
3071 6194
3071 6210
3071 6888
3071 7509
3071 8748
3071 9056
3071 9541
3071 9831
3072 4086
3072 4452
3072 5135
3072 7178
3072 7189
3072 7710
3072 7748
3072 7766
3072 8019
3072 8486
3072 8527
3072 8556
3072 8593
3072 8855
3072 9280
3072 9743
3073 3477
3073 5708
3073 5727
3073 6909
3073 7156
3073 7255
3073 7364
3073 7455
3073 7902
3073 9845
3074 3264
3074 3323
3074 3898
3074 4131
3074 4397
3074 5142
3074 5151
3074 5423
3074 5558
3074 7023
3074 8810
3074 9703
3075 3512
3075 3696
3075 3731
3075 4068
3075 4246
3075 4326
3075 4392
3075 4966
3075 5001
3075 5408
3075 5602
3075 5675
3075 5726
3075 6377
3075 6405
3075 6421
3075 6430
3075 6542
3075 7681
3075 8118
3075 8460
3075 8886
3076 4171
3076 4871
3076 6013
3076 7512
3076 7656
3076 8480
3077 3185
3077 3229
3077 3289
3077 3721
3077 3936
3077 4222
3077 4265
3077 4629
3077 4953
3077 5092
3077 5218
3077 5361
3077 5657
3077 5861
3077 5887
3077 5980
3077 6562
3077 7317
3077 7515
3077 7952
3077 8338
3077 8349
3077 9583
3078 3368
3078 4251
3078 4420
3078 4593
3078 4633
3078 5804
3078 5855
3078 5887
3078 7496
3078 7841
3078 8346
3078 8392
3079 3460
3079 4334
3079 4885
3079 5450
3079 6255
3079 6544
3079 6637
3079 6782
3079 8010
3079 8191
3079 8461
3079 9108
3080 3465
3080 3992
3080 4047
3080 5204
3080 5689
3080 5837
3080 5963
3080 6264
3080 6565
3080 6698
3080 7131
3080 7246
3080 7457
3080 7673
3080 7922
3080 7980
3080 7996
3080 8162
3080 8327
3080 8482
3080 8510
3080 9033
3080 9170
3080 9538
3080 9608
3081 3383
3081 3474
3081 4044
3081 5830
3081 6331
3081 6604
3081 7064
3081 8178
3081 8180
3081 8759
3081 8768
3081 9044
3081 9127
3081 9673
3082 3559
3082 4316
3082 4745
3082 4908
3082 5103
3082 5904
3082 6229
3082 7273
3082 7505
3082 7520
3082 8459
3082 8806
3082 9380
3082 9503
3082 9556
3082 9744
3083 3442
3083 4027
3083 4065
3083 4827
3083 5268
3083 5414
3083 5460
3083 5782
3083 5969
3083 6041
3083 6419
3083 6628
3083 6706
3083 7318
3083 7325
3083 7378
3083 7457
3083 7538
3083 7805
3083 7870
3083 7985
3083 8844
3083 8898
3083 9357
3083 9674
3084 3531
3084 3853
3084 3926
3084 4469
3084 4570
3084 4674
3084 4696
3084 4703
3084 5169
3084 6782
3084 8006
3084 8063
3084 8449
3084 8517
3084 9106
3084 9190
3084 9440
3085 4241
3085 4964
3085 5019
3085 5134
3085 5252
3085 5662
3085 6828
3085 7245
3085 7552
3085 7870
3085 8093
3085 8749
3085 9071
3085 9779
3086 3125
3086 3494
3086 3771
3086 6635
3086 7291
3086 8355
3086 8648
3086 9715
3086 9953
3087 3376
3087 4048
3087 5371
3087 5583
3087 6421
3087 6943
3087 7245
3087 7573
3087 8156
3087 9234
3088 3670
3088 4302
3088 4902
3088 5985
3088 6246
3088 6312
3088 6605
3088 6989
3088 8176
3088 8230
3088 8443
3088 8756
3088 8874
3088 8945
3088 9033
3088 9268
3088 9283
3088 9512
3089 4680
3089 6401
3089 6516
3089 8452
3089 8723
3089 8769
3090 3247
3090 3721
3090 4203
3090 4220
3090 4412
3090 4469
3090 4494
3090 5319
3090 5624
3090 5755
3090 5973
3090 6227
3090 6352
3090 6441
3090 6518
3090 6671
3090 7569
3090 7667
3090 7864
3090 8189
3090 8469
3090 8818
3090 8941
3090 8947
3090 9271
3090 9370
3090 9398
3090 9491
3090 9584
3090 9619
3090 9680
3091 3092
3091 3633
3091 3834
3091 3865
3091 3957
3091 4114
3091 4367
3091 4703
3091 4708
3091 5554
3091 5637
3091 5990
3091 6104
3091 6290
3091 6329
3091 6394
3091 6481
3091 6852
3091 7199
3091 7358
3091 7538
3091 7575
3091 7677
3091 7725
3091 7949
3091 7988
3091 8889
3091 9102
3091 9257
3091 9397
3091 9556
3091 9939
3092 3507
3092 3807
3092 4085
3092 4255
3092 4696
3092 4822
3092 4939
3092 5234
3092 5435
3092 5981
3092 6249
3092 6463
3092 6670
3092 7222
3092 8084
3092 8092
3092 8610
3092 8827
3092 8828
3092 9281
3093 3309
3093 3645
3093 4218
3093 5548
3093 6404
3093 7563
3093 8265
3093 9231
3093 9766
3093 9871
3094 3673
3094 4618
3094 4761
3094 6280
3094 7005
3094 8247
3094 8615
3094 9227
3095 3251
3095 3265
3095 3338
3095 3411
3095 3715
3095 3789
3095 3996
3095 4105
3095 4237
3095 4350
3095 4776
3095 5212
3095 6046
3095 6055
3095 6432
3095 6701
3095 7782
3095 7786
3095 7816
3095 7948
3095 8319
3095 8450
3095 8857
3095 9624
3096 3586
3096 3606
3096 4642
3096 4694
3096 6149
3096 7287
3096 7769
3096 7908
3096 9085
3097 3133
3097 3140
3097 3351
3097 3462
3097 3652
3097 4567
3097 4684
3097 5202
3097 6163
3097 6743
3097 7036
3097 7374
3097 7424
3097 8074
3097 8097
3097 8204
3097 8363
3097 8492
3097 8615
3097 8723
3097 8742
3097 8931
3097 9197
3097 9245
3097 9841
3097 9906
3097 9923
3097 9992
3098 3565
3098 3605
3098 4311
3098 5186
3098 6171
3098 6364
3098 8388
3098 9108
3098 9691
3099 3187
3099 3206
3099 3770
3099 4168
3099 4551
3099 4726
3099 4767
3099 4927
3099 5198
3099 5901
3099 6058
3099 6098
3099 6877
3099 7221
3099 7273
3099 7992
3099 8201
3099 8323
3099 8874
3099 9129
3099 9674
3100 3858
3100 3924
3100 4129
3100 4902
3100 5091
3100 5644
3100 5821
3100 6037
3100 6438
3100 6998
3100 9594
3101 3490
3101 3497
3101 3545
3101 4230
3101 4372
3101 4971
3101 5520
3101 5746
3101 6245
3101 6820
3101 7798
3101 7983
3101 8038
3101 8111
3101 8442
3101 8698
3101 8774
3101 9019
3101 9239
3101 9765
3101 9785
3101 9993
3101 9995
3102 4073
3102 4422
3102 5260
3102 5265
3102 5486
3102 5514
3102 5569
3102 5825
3102 5961
3102 6876
3102 7025
3102 7425
3102 7573
3102 7609
3102 7667
3102 7751
3102 7771
3102 7788
3102 8302
3102 8721
3102 8892
3102 9000
3102 9905
3102 9977
3103 3548
3103 4632
3103 4682
3103 4936
3103 7282
3103 7333
3103 8148
3103 8565
3103 9350
3104 3317
3104 4055
3104 4378
3104 4748
3104 6618
3104 6670
3104 9371
3105 5201
3105 5407
3105 6661
3105 7467
3105 8375
3105 8406
3105 9456
3106 3174
3106 3190
3106 4123
3106 4418
3106 4735
3106 5190
3106 5418
3106 6878
3106 9619
3107 4388
3107 5637
3107 6503
3107 7005
3107 7222
3107 9721
3107 9740
3108 3172
3108 4584
3108 4764
3108 5759
3108 7242
3108 7700
3108 7951
3108 8422
3108 8423
3108 8513
3108 8912
3108 9094
3108 9243
3108 9669
3108 9670
3109 3423
3109 4459
3109 4498
3109 4883
3109 4903
3109 5081
3109 6398
3109 6475
3109 7050
3109 7128
3109 7233
3109 7314
3109 7410
3109 7529
3109 7656
3109 8193
3109 8719
3109 8739
3109 9485
3109 9985
3110 3327
3110 4506
3110 4547
3110 4551
3110 5147
3110 5328
3110 5365
3110 5434
3110 5459
3110 5938
3110 6019
3110 6270
3110 6435
3110 6726
3110 8126
3110 8137
3110 8268
3110 8571
3110 9203
3110 9320
3110 9760
3111 3235
3111 3448
3111 3661
3111 3890
3111 3946
3111 4447
3111 4454
3111 5171
3111 7080
3111 7729
3111 8730
3111 8878
3111 8890
3111 9359
3112 3804
3112 4016
3112 4809
3112 5080
3112 7449
3112 8091
3112 8615
3112 8696
3112 9256
3112 9731
3112 9977
3113 3770
3113 5537
3113 6181
3113 8169
3113 9146
3113 9914
3114 3135
3114 3149
3114 3324
3114 3577
3114 4347
3114 4434
3114 4441
3114 5013
3114 5855
3114 6525
3114 6661
3114 8381
3114 9914
3115 3190
3115 3561
3115 3714
3115 3982
3115 4034
3115 4811
3115 4901
3115 8777
3115 8862
3116 3592
3116 3636
3116 3660
3116 6061
3116 6232
3116 6425
3116 6997
3116 7106
3116 7785
3117 3793
3117 4310
3117 4812
3117 4835
3117 5357
3117 6315
3117 6323
3117 6512
3117 6672
3117 6733
3117 6923
3117 7176
3117 7470
3117 8874
3117 9450
3118 3184
3118 3668
3118 3703
3118 4676
3118 4687
3118 4810
3118 4964
3118 5214
3118 5295
3118 5411
3118 5504
3118 5695
3118 6379
3118 6635
3118 6727
3118 7304
3118 7422
3118 7566
3118 7784
3118 7785
3118 8319
3118 8344
3118 8374
3118 8445
3118 9005
3118 9048
3118 9080
3118 9419
3118 9883
3119 3868
3119 5202
3119 5341
3119 5645
3119 5966
3119 6025
3119 6026
3119 6277
3119 6390
3119 6574
3119 7100
3119 7388
3119 7443
3119 7458
3119 7752
3119 7784
3119 8402
3119 8540
3119 8818
3119 8852
3119 9145
3119 9155
3119 9257
3119 9640
3119 9679
3120 3873
3120 4552
3120 5185
3120 5309
3120 5438
3120 5450
3120 6048
3120 6708
3120 6926
3120 9112
3120 9348
3120 9887
3120 9923
3120 9963
3121 5038
3121 5069
3121 6857
3121 9250
3122 3277
3122 3919
3122 3936
3122 5226
3122 5553
3122 5605
3122 7952
3122 8382
3122 8934
3123 3308
3123 3690
3123 3721
3123 3886
3123 6593
3123 6940
3123 8451
3123 8541
3123 8804
3124 3158
3124 3272
3124 4321
3124 4695
3124 5178
3124 5310
3124 6777
3124 9406
3124 9536
3125 3323
3125 4683
3125 5863
3125 6864
3125 7458
3125 8273
3125 9237
3125 9339
3125 9375
3125 9607
3125 9826
3126 5056
3126 6566
3126 7724
3126 7791
3126 8541
3126 8696
3126 9076
3126 9269
3126 9479
3127 5253
3127 6122
3127 6460
3127 7060
3127 7675
3127 9692
3127 9968
3128 3974
3128 4058
3128 4242
3128 5207
3128 5843
3128 5935
3128 6100
3128 7045
3128 7355
3128 7459
3128 8200
3128 8829
3128 9451
3129 3208
3129 3453
3129 3874
3129 5668
3129 6948
3129 7636
3130 4029
3130 5042
3130 5087
3130 5435
3130 6136
3130 7191
3131 3158
3131 4189
3131 5445
3131 6857
3131 6924
3131 7088
3131 8133
3131 9231
3131 9692
3132 5342
3132 8036
3132 8191
3132 8297
3132 8334
3132 8388
3132 8689
3132 8922
3132 9196
3133 4872
3133 5161
3133 5670
3133 6789
3133 7973
3133 8103
3133 8301
3133 8906
3133 9138
3133 9986
3134 3581
3134 5195
3134 5813
3134 6501
3134 6866
3134 8201
3135 3487
3135 3625
3135 3976
3135 4733
3135 4771
3135 4816
3135 5059
3135 5257
3135 5794
3135 6197
3135 6499
3135 7192
3135 7560
3135 7780
3135 7799
3135 8700
3135 8784
3135 8843
3135 9281
3135 9626
3135 9939
3136 3496
3136 4030
3136 4354
3136 4431
3136 5209
3136 5586
3136 6156
3136 7232
3136 8071
3136 9266
3137 3508
3137 4520
3137 5304
3137 5650
3137 5675
3137 6842
3137 6916
3137 7046
3137 8902
3137 9442
3137 9705
3137 9906
3138 3651
3138 3711
3138 4473
3138 4788
3138 5230
3138 5422
3138 5553
3138 6245
3138 6542
3138 6575
3138 6782
3138 7828
3138 8179
3138 9623
3138 9815
3138 9862
3139 3533
3139 3859
3139 3993
3139 4275
3139 4307
3139 4755
3139 4967
3139 5275
3139 5490
3139 5708
3139 5836
3139 5902
3139 6009
3139 6047
3139 6447
3139 6740
3139 6775
3139 7101
3139 7303
3139 7737
3139 8422
3139 8622
3139 8678
3139 9294
3139 9670
3139 9709
3139 9843
3139 9903
3140 3359
3140 3652
3140 4050
3140 4684
3140 4725
3140 6348
3140 6743
3140 7044
3140 7374
3140 7414
3140 7812
3140 8271
3140 8363
3140 8942
3140 9351
3140 9906
3141 3509
3141 3574
3141 3972
3141 4845
3141 5627
3141 5992
3141 6076
3141 6098
3141 6677
3141 7027
3141 7790
3141 8163
3141 8310
3141 8878
3142 4702
3142 4802
3142 4912
3142 5143
3142 5232
3142 5345
3142 5431
3142 5622
3142 5693
3142 6240
3142 6295
3142 7109
3142 7754
3142 8383
3142 8482
3142 9083
3142 9684
3143 3311
3143 3570
3143 4241
3143 4368
3143 4647
3143 6320
3143 8343
3143 8570
3143 8720
3144 3173
3144 3620
3144 3817
3144 5335
3144 6830
3144 7762
3144 8735
3145 3525
3145 8165
3145 8836
3146 4140
3146 6258
3146 6582
3146 6776
3146 6803
3146 6806
3146 7667
3146 7721
3146 7980
3146 8127
3146 8456
3146 9444
3146 9448
3147 3940
3147 4557
3147 6619
3147 7292
3147 7573
3147 7848
3147 7993
3147 8105
3147 8976
3147 9091
3147 9541
3148 3176
3148 3204
3148 3497
3148 3547
3148 3628
3148 3726
3148 3817
3148 3943
3148 4078
3148 5021
3148 5147
3148 5622
3148 5684
3148 5936
3148 6407
3148 6863
3148 6941
3148 7016
3148 7327
3148 7546
3148 7580
3148 7939
3148 8547
3148 8958
3149 3843
3149 4434
3149 6477
3149 6535
3149 7955
3149 8351
3149 8459
3149 8567
3149 8834
3149 9159
3149 9914
3150 3307
3150 3483
3150 3495
3150 3808
3150 3980
3150 4089
3150 4166
3150 4214
3150 4270
3150 4380
3150 4661
3150 4847
3150 4921
3150 5178
3150 5365
3150 5689
3150 5968
3150 6064
3150 6745
3150 6891
3150 6962
3150 6973
3150 7377
3150 7925
3150 8125
3150 8170
3150 8703
3150 8849
3150 8886
3150 9597
3150 9882
3151 4534
3151 4561
3151 4600
3151 5137
3151 5406
3151 6535
3151 6813
3151 8233
3151 8351
3151 8979
3151 9008
3151 9434
3152 3594
3152 3819
3152 4039
3152 4512
3152 4784
3152 4942
3152 6095
3152 6433
3152 6628
3152 6705
3152 6780
3152 7346
3152 7351
3152 7885
3152 8079
3152 8138
3152 8264
3152 8639
3152 8677
3152 9019
3152 9511
3153 3964
3153 4376
3153 4405
3153 4973
3153 8101
3153 8550
3154 4129
3154 4333
3154 4788
3154 5764
3154 6228
3154 6470
3154 6506
3154 7410
3154 7422
3155 3180
3155 4150
3155 5500
3155 5764
3155 6003
3155 6031
3155 7269
3155 7666
3155 7802
3155 8708
3155 9033
3155 9060
3155 9173
3155 9437
3155 9946
3155 9977
3156 3452
3156 4498
3156 5113
3156 5259
3156 5651
3156 7287
3156 7679
3156 9161
3157 4329
3157 4741
3157 5251
3157 5598
3157 5756
3157 6983
3157 7738
3157 8098
3157 9532
3158 3272
3158 5178
3158 5828
3158 6321
3158 6824
3158 6959
3158 6992
3158 7341
3158 7581
3158 7621
3158 8351
3158 8650
3158 8801
3159 3617
3159 3649
3159 5219
3159 6164
3159 6533
3159 7372
3159 7467
3159 7488
3159 8180
3159 8894
3159 9967
3160 3344
3160 3494
3160 3598
3160 3599
3160 3711
3160 3755
3160 4283
3160 4821
3160 5108
3160 5497
3160 5541
3160 5759
3160 6149
3160 6375
3160 6937
3160 7309
3160 7402
3160 8041
3160 8067
3160 8797
3160 9380
3160 9487
3160 9895
3161 3594
3161 4016
3161 4920
3161 5226
3161 5315
3161 5662
3161 5840
3161 6000
3161 6369
3161 6821
3161 7070
3161 7159
3161 7445
3161 7602
3161 8024
3161 8061
3161 8133
3161 8366
3161 8553
3161 8891
3161 9087
3161 9278
3161 9346
3161 9424
3161 9476
3161 9623
3162 3273
3162 3920
3162 4995
3162 5101
3162 5136
3162 5195
3162 5692
3162 6046
3162 6052
3162 6491
3162 6720
3162 6929
3162 7500
3162 7543
3162 7736
3162 8377
3162 8779
3162 9373
3163 4904
3163 5278
3163 6781
3163 7806
3163 8097
3163 8896
3163 8938
3163 9000
3163 9078
3163 9761
3164 3973
3164 5698
3164 6177
3164 6582
3164 7794
3164 8182
3164 8323
3164 8546
3164 8565
3164 8681
3164 9013
3164 9241
3165 3495
3165 4274
3165 4845
3165 6103
3165 6782
3165 7027
3165 7247
3165 7359
3165 8646
3165 9377
3166 3370
3166 3550
3166 3927
3166 4518
3166 6396
3166 7178
3166 7191
3166 8004
3166 8246
3166 8630
3166 9235
3167 3346
3167 3710
3167 4146
3167 4993
3167 5307
3167 5370
3167 6013
3167 6276
3167 7042
3167 8362
3167 8861
3168 4018
3168 4047
3168 4356
3168 5272
3168 5471
3168 5521
3168 5629
3168 6128
3168 6138
3168 6486
3168 6621
3168 6649
3168 6845
3168 7894
3168 8299
3168 8767
3168 8928
3168 9018
3168 9189
3169 3328
3169 3353
3169 3938
3169 4121
3169 4336
3169 4832
3169 4909
3169 5123
3169 5325
3169 5332
3169 5873
3169 5995
3169 6659
3169 6721
3169 6877
3169 6954
3169 7265
3169 7410
3169 7500
3169 8344
3169 9114
3169 9245
3169 9501
3170 3660
3170 3834
3170 4494
3170 4588
3170 6150
3170 6559
3170 7882
3170 7995
3171 3797
3171 4991
3171 7211
3171 7261
3171 8491
3171 8731
3171 8836
3171 8886
3171 9281
3172 3646
3172 3721
3172 3902
3172 3982
3172 4843
3172 4937
3172 5051
3172 5241
3172 5436
3172 5621
3172 5702
3172 5932
3172 6430
3172 7152
3172 7238
3172 7941
3172 8974
3172 9748
3173 3305
3173 4167
3173 4426
3173 4702
3173 5742
3173 5969
3173 6307
3173 6707
3173 6752
3173 7157
3173 7217
3173 7371
3173 7752
3173 7914
3173 7916
3173 7969
3173 8255
3173 9029
3173 9126
3173 9631
3173 9870
3174 4609
3174 6297
3174 9707
3175 3534
3175 3837
3175 4616
3175 4782
3175 4798
3175 5630
3175 6026
3175 7382
3175 7407
3175 7635
3175 7831
3175 8653
3175 9199
3175 9688
3176 3301
3176 3693
3176 3896
3176 4174
3176 4446
3176 4654
3176 4874
3176 5195
3176 5419
3176 5507
3176 5755
3176 6009
3176 6654
3176 6893
3176 6937
3176 6948
3176 7116
3176 7218
3176 7360
3176 7953
3176 8017
3176 8638
3176 8646
3176 8748
3176 9130
3176 9342
3176 9656
3176 9686
3177 3279
3177 3332
3177 3588
3177 3750
3177 3809
3177 4202
3177 5136
3177 6530
3177 6747
3177 8036
3177 8386
3177 8510
3177 9639
3178 3979
3178 4170
3178 4420
3178 4531
3178 4811
3178 5541
3178 5671
3178 6260
3178 8771
3179 3180
3179 3628
3179 5452
3179 5520
3179 6877
3179 7092
3179 8115
3179 8358
3179 8360
3179 8531
3179 9209
3179 9410
3180 3604
3180 3786
3180 5426
3180 5824
3180 6486
3180 8086
3180 9078
3180 9498
3180 9863
3181 3604
3181 4546
3181 5148
3181 5185
3181 5242
3181 5450
3181 6414
3181 7449
3181 7821
3181 8914
3182 3982
3182 5988
3182 6235
3182 6637
3182 7464
3182 7924
3182 8054
3182 8104
3183 4490
3183 5114
3183 5810
3183 5908
3183 6965
3183 7082
3183 7878
3183 8394
3183 9076
3183 9214
3184 4300
3184 4330
3184 5686
3184 7009
3184 7092
3184 8097
3184 8637
3184 8932
3184 9484
3184 9647
3185 3419
3185 3724
3185 4611
3185 5023
3185 5394
3185 6051
3185 6574
3185 6813
3185 6817
3185 7774
3185 8696
3185 8967
3186 3455
3186 3759
3186 4110
3186 4462
3186 5373
3186 7845
3186 8059
3186 8250
3186 8674
3186 8849
3186 9088
3186 9288
3186 9857
3186 9890
3187 3256
3187 3611
3187 3748
3187 3940
3187 3984
3187 4521
3187 4598
3187 4998
3187 5155
3187 5480
3187 5568
3187 6166
3187 6204
3187 6368
3187 6620
3187 6688
3187 6826
3187 7832
3187 7928
3187 8005
3187 8137
3187 8340
3187 8425
3187 8920
3187 9002
3187 9197
3187 9295
3187 9302
3187 9485
3187 9950
3187 9983
3188 3605
3188 4127
3188 4170
3188 4381
3188 4816
3188 5076
3188 5168
3188 5344
3188 5697
3188 6361
3188 6436
3188 7322
3188 8073
3188 8967
3188 9879
3189 5782
3189 7169
3189 7383
3189 7755
3189 8279
3189 9238
3189 9267
3189 9782
3190 4418
3190 4878
3190 5991
3190 6221
3190 7797
3190 8156
3190 8541
3190 8724
3190 8997
3190 9588
3191 3707
3191 3875
3191 4124
3191 4249
3191 4257
3191 4435
3191 4843
3191 4978
3191 5384
3191 5562
3191 5842
3191 6217
3191 6255
3191 7475
3191 7483
3191 7615
3191 8070
3191 8375
3191 8400
3191 8680
3191 9412
3191 9804
3191 9893
3191 9932
3192 3709
3192 3861
3192 3889
3192 5443
3192 5744
3192 5794
3192 6505
3192 6953
3192 6956
3192 7797
3192 7910
3192 8100
3192 8181
3192 8798
3192 9254
3192 9957
3193 3283
3193 4069
3193 4157
3193 4274
3193 4689
3193 5085
3193 5381
3193 5914
3193 5997
3193 6495
3193 6777
3193 8421
3193 9025
3193 9193
3194 3499
3194 3629
3194 4955
3194 5242
3194 6102
3194 6784
3194 7808
3194 7980
3195 4410
3195 4801
3195 5192
3195 5424
3195 5804
3195 6821
3195 7225
3195 8396
3195 8574
3196 3565
3196 4067
3196 4188
3196 5002
3196 6697
3196 6916
3196 8558
3196 8794
3196 9315
3197 5610
3197 6576
3197 8001
3197 8813
3197 8844
3197 9307
3197 9590
3197 9845
3198 3217
3198 3270
3198 3496
3198 3668
3198 3684
3198 3735
3198 4190
3198 4322
3198 4328
3198 4366
3198 4577
3198 5100
3198 5557
3198 6408
3198 6917
3198 7164
3198 7341
3198 7347
3198 7386
3198 7763
3198 7961
3198 8298
3198 8440
3198 8515
3198 8596
3198 8621
3198 9065
3198 9429
3198 9764
3198 9924
3199 3589
3199 3681
3199 3745
3199 4398
3199 4827
3199 4992
3199 5349
3199 5623
3199 5753
3199 6391
3199 6459
3199 7463
3199 7582
3199 7658
3199 8271
3199 9119
3199 9371
3199 9498
3199 9959
3200 4410
3200 5222
3200 5753
3200 7592
3200 8615
3200 8761
3200 8929
3200 9866
3201 3933
3201 4027
3201 4565
3201 4594
3201 4865
3201 5089
3201 5109
3201 5167
3201 5332
3201 6548
3201 7279
3201 8805
3201 9082
3201 9609
3202 3395
3202 3743
3202 3754
3202 5732
3202 6957
3202 7406
3203 5292
3203 5577
3203 7172
3203 7683
3203 8222
3203 9277
3203 9716
3204 3525
3204 3892
3204 6514
3204 6590
3204 7076
3204 8194
3204 8288
3204 8656
3204 9178
3205 3607
3205 4159
3205 4187
3205 4346
3205 5108
3205 5586
3205 6155
3205 6163
3205 6375
3205 7702
3205 9127
3205 9290
3205 9550
3205 9985
3206 3740
3206 4089
3206 4304
3206 5493
3206 5901
3206 6058
3206 6215
3206 6567
3206 7495
3206 7576
3206 8397
3206 9129
3206 9499
3207 3827
3207 4114
3207 4552
3207 7027
3207 7175
3207 7255
3207 9638
3208 3350
3208 3502
3208 3704
3208 3902
3208 4620
3208 4632
3208 4634
3208 5668
3208 5743
3208 6130
3208 6226
3208 6266
3208 6428
3208 6813
3208 6867
3208 6948
3208 7449
3208 7553
3208 7608
3208 7636
3208 8197
3208 8458
3208 8503
3208 8820
3208 9340
3208 9877
3209 3439
3209 3663
3209 5131
3209 6256
3209 7696
3209 7764
3209 8088
3209 8357
3209 9019
3209 9413
3209 9863
3209 9946
3210 3293
3210 3379
3210 5256
3210 5646
3210 5895
3210 6532
3210 7698
3211 3745
3211 4598
3211 5584
3211 7291
3211 8315
3211 8917
3212 3709
3212 4959
3212 6559
3212 7358
3212 7685
3212 8260
3212 9791
3213 3868
3213 4015
3213 4887
3213 5280
3213 5552
3213 5779
3213 6479
3213 6641
3213 6728
3213 6933
3213 7006
3213 7129
3213 7510
3213 8251
3213 8406
3213 9084
3213 9367
3214 3957
3214 4282
3214 5498
3214 6215
3214 6342
3214 7206
3214 7291
3214 7899
3214 8073
3214 8329
3214 8461
3214 8636
3214 9052
3214 9963
3215 3276
3215 3365
3215 3587
3215 4123
3215 4673
3215 5280
3215 6077
3215 6444
3215 6612
3215 6785
3215 7105
3215 7369
3215 7413
3215 7478
3215 7662
3215 7893
3215 8456
3215 8601
3215 8774
3215 8825
3215 8929
3215 9016
3215 9199
3215 9285
3216 3626
3216 3649
3216 5208
3216 5989
3216 6394
3216 7119
3216 8006
3216 8223
3216 9252
3217 3342
3217 3716
3217 4479
3217 5274
3217 5594
3217 6408
3217 6503
3217 6621
3217 8539
3217 9552
3217 9795
3217 9873
3218 3423
3218 3728
3218 4884
3218 5553
3218 5723
3218 7606
3218 7819
3218 9627
3219 3226
3219 3458
3219 3548
3219 3593
3219 4159
3219 4880
3219 6184
3219 6201
3219 8122
3220 4055
3220 4667
3220 5001
3220 5751
3220 6166
3220 8128
3220 8835
3220 9996
3221 4958
3221 5607
3221 6089
3221 6140
3221 6481
3221 6622
3221 7226
3221 8664
3221 9232
3221 9359
3221 9749
3222 3525
3222 3801
3222 3834
3222 3872
3222 4191
3222 4290
3222 4735
3222 5483
3222 5625
3222 5669
3222 7144
3222 8174
3222 8191
3222 9231
3222 9674
3222 9905
3222 9970
3223 3429
3223 3842
3223 4685
3223 4986
3223 5218
3223 5266
3223 5509
3223 5955
3223 6482
3223 7156
3223 7281
3223 7395
3223 8622
3223 8853
3223 9670
3224 5112
3224 5338
3224 5549
3224 9058
3225 4864
3225 4989
3225 5300
3225 7748
3225 9392
3225 9658
3226 3698
3226 3741
3226 4637
3226 5093
3226 5505
3226 5737
3226 5840
3226 6749
3226 7525
3226 8172
3226 8833
3227 3679
3227 5093
3227 6308
3227 7094
3227 7245
3227 7543
3227 7707
3227 8307
3227 8547
3227 9198
3227 9588
3227 9837
3228 4656
3228 4733
3228 4907
3228 5056
3228 5983
3228 6566
3228 6578
3228 6636
3228 6791
3228 6899
3228 7847
3228 8183
3228 8205
3228 8886
3228 9008
3228 9076
3228 9935
3229 4682
3229 4794
3229 5195
3229 5269
3229 5344
3229 5345
3229 5652
3229 6254
3229 6999
3229 8284
3229 8620
3229 9232
3230 4146
3230 4729
3230 5311
3230 5332
3230 5522
3230 6351
3230 7318
3230 8188
3230 8612
3230 9261
3230 9501
3230 9879
3230 9996
3231 3952
3231 5268
3231 5625
3231 6432
3231 6865
3231 8045
3231 8277
3231 8328
3231 8563
3231 8829
3231 9313
3231 9503
3232 3329
3232 3844
3232 4018
3232 4235
3232 4717
3232 5473
3232 6556
3232 6967
3232 7610
3232 8375
3233 3939
3233 5373
3233 5653
3233 6029
3233 6949
3233 7929
3233 8288
3233 9024
3233 9176
3233 9430
3233 9826
3234 3732
3234 4914
3234 7328
3234 7799
3234 8701
3234 9414
3235 3527
3235 3726
3235 3894
3235 4310
3235 4372
3235 4780
3235 4919
3235 4952
3235 5435
3235 6100
3235 6234
3235 6741
3235 7119
3235 7257
3235 7307
3235 7799
3235 7966
3235 8133
3235 8190
3235 8191
3235 8219
3235 8312
3235 8649
3235 9001
3235 9265
3235 9317
3235 9571
3235 9574
3235 9809
3235 9889
3236 3793
3236 3938
3236 4792
3236 6429
3236 8653
3236 9721
3237 4224
3237 4618
3237 4812
3237 5523
3237 6175
3237 6573
3237 6805
3237 6949
3237 7082
3237 7125
3237 7280
3237 7454
3237 7676
3237 7684
3237 7692
3237 7803
3237 7927
3237 7955
3237 8855
3237 8989
3237 9188
3237 9196
3237 9625
3238 5215
3238 5702
3238 5952
3238 6270
3238 6513
3238 7187
3238 7510
3238 8286
3238 8749
3238 9016
3238 9056
3239 5648
3239 5701
3239 6019
3239 6284
3239 8075
3239 8955
3239 9621
3240 3466
3240 3557
3240 3818
3240 4498
3240 4506
3240 4929
3240 5083
3240 5151
3240 5248
3240 5294
3240 5450
3240 5845
3240 5982
3240 6124
3240 6831
3240 6870
3240 8013
3240 8184
3240 8283
3240 8299
3240 8427
3240 8759
3240 9248
3240 9585
3240 9985
3241 3873
3241 4862
3241 4982
3241 6989
3241 7432
3241 7534
3241 7785
3241 8236
3241 9839
3242 3771
3242 4032
3242 4179
3242 4637
3242 5490
3242 6409
3242 6478
3242 6677
3242 6825
3243 3281
3243 3679
3243 4171
3243 4433
3243 4465
3243 4849
3243 5257
3243 5438
3243 5619
3243 6112
3243 6342
3243 8317
3243 8565
3243 8622
3243 9310
3244 3252
3244 3307
3244 3668
3244 5086
3244 5422
3244 6067
3244 6328
3244 6447
3244 6796
3244 7020
3244 7160
3244 7646
3244 7682
3244 7762
3244 7791
3244 8076
3244 8323
3244 8332
3244 8650
3244 8704
3244 8899
3244 9599
3244 9600
3244 9604
3245 3816
3245 4159
3245 4697
3245 4840
3245 5042
3245 5173
3245 5558
3245 5674
3245 6858
3245 6862
3245 6900
3245 7279
3245 7422
3245 8250
3245 9086
3245 9386
3245 9444
3245 9593
3245 9944
3245 9985
3246 3509
3246 3874
3246 5629
3246 5711
3246 5739
3246 5911
3246 6550
3246 7050
3246 7081
3246 7788
3246 8422
3246 9689
3246 9721
3246 9878
3247 3938
3247 4123
3247 4412
3247 5540
3247 6569
3247 7569
3247 7863
3247 7949
3247 8469
3247 9271
3247 9337
3247 9680
3248 3357
3248 3881
3248 4975
3248 5197
3248 5871
3248 6455
3248 6575
3248 8698
3248 8863
3248 9270
3249 4313
3249 4370
3249 5015
3249 5296
3249 5593
3249 6516
3249 7558
3249 7565
3249 7779
3249 7992
3249 8718
3249 8760
3250 3486
3250 3794
3250 4594
3250 5037
3250 5198
3250 6063
3250 6762
3250 6843
3250 7380
3250 9297
3250 9742
3251 3757
3251 5918
3251 5932
3251 6063
3251 6315
3251 7357
3251 8497
3251 8701
3251 8773
3251 9744
3252 3313
3252 3327
3252 3414
3252 3633
3252 3953
3252 3962
3252 4128
3252 4188
3252 4477
3252 5067
3252 5255
3252 5368
3252 5415
3252 5799
3252 5895
3252 6037
3252 6161
3252 6476
3252 6641
3252 7059
3252 7417
3252 7504
3252 7614
3252 8107
3252 8959
3252 9263
3252 9516
3252 9681
3252 9952
3253 3509
3253 4782
3253 4843
3253 5540
3253 6429
3253 8138
3253 8459
3253 9931
3254 3599
3254 4350
3254 4618
3254 5481
3254 6560
3254 7295
3254 8103
3254 8580
3254 9852
3255 3740
3255 4317
3255 4368
3255 4514
3255 5643
3255 6705
3255 7482
3255 7806
3255 8619
3255 8742
3256 4185
3256 6155
3256 7102
3256 7168
3256 7255
3256 7696
3256 7710
3256 7751
3256 8754
3256 9879
3257 3261
3257 3452
3257 4283
3257 4352
3257 4879
3257 5180
3257 5971
3257 6102
3257 7373
3257 7980
3257 8008
3257 8053
3257 8421
3257 8477
3257 9697
3258 4494
3258 4892
3258 4962
3258 5097
3258 6150
3258 6483
3258 7114
3258 7118
3258 7616
3258 7882
3258 7995
3258 9520
3259 3635
3259 3756
3259 3793
3259 4441
3259 4947
3259 7085
3259 7223
3259 8961
3259 9231
3259 9602
3260 3813
3260 4183
3260 4243
3260 4417
3260 4567
3260 4682
3260 6493
3260 7001
3260 7682
3260 8057
3260 9700
3260 9774
3260 9842
3261 3723
3261 3968
3261 4150
3261 4256
3261 4691
3261 5527
3261 5540
3261 7178
3261 9218
3261 9630
3261 9823
3261 9907
3262 4116
3262 4398
3262 4992
3262 5577
3262 5693
3262 6018
3262 6062
3262 7484
3262 7632
3262 7900
3262 8885
3263 3597
3263 4404
3263 4676
3263 5046
3263 5455
3263 5577
3263 5928
3263 6378
3263 7611
3263 8385
3263 8467
3263 8498
3263 9103
3263 9219
3263 9280
3263 9298
3263 9299
3263 9676
3263 9890
3264 3499
3264 3526
3264 3843
3264 4139
3264 4237
3264 4245
3264 4533
3264 4722
3264 4914
3264 4939
3264 4963
3264 5012
3264 5109
3264 5423
3264 5472
3264 5648
3264 6129
3264 6827
3264 6918
3264 7165
3264 7513
3264 7678
3264 8061
3264 8297
3264 8337
3264 8810
3264 8816
3264 9365
3264 9703
3265 3321
3265 3758
3265 5344
3265 5412
3265 7186
3265 8071
3265 8663
3265 8746
3265 9095
3265 9156
3265 9639
3266 3606
3266 4162
3266 4195
3266 4433
3266 4696
3266 5364
3266 6981
3266 7073
3266 7498
3266 8182
3266 9531
3267 3430
3267 3519
3267 4488
3267 4823
3267 5007
3267 5273
3267 5336
3267 6665
3267 6789
3267 6878
3267 7055
3267 7128
3267 7210
3267 7278
3267 8165
3267 8240
3267 8522
3267 8563
3267 8757
3267 8904
3267 9243
3267 9307
3267 9842
3268 3310
3268 3552
3268 3559
3268 3748
3268 4181
3268 4302
3268 4768
3268 4797
3268 5013
3268 5309
3268 5623
3268 5782
3268 5803
3268 6014
3268 6227
3268 6253
3268 6348
3268 7100
3268 7264
3268 7470
3268 8367
3268 8660
3268 9015
3268 9180
3269 3311
3269 3697
3269 4153
3269 4182
3269 4252
3269 4319
3269 4373
3269 4594
3269 4955
3269 5454
3269 6417
3269 6550
3269 6612
3269 6739
3269 7770
3269 8005
3269 8072
3269 8157
3269 8255
3269 8560
3269 8760
3269 8879
3269 9152
3269 9400
3269 9482
3269 9614
3269 9713
3270 4835
3270 5992
3270 6012
3270 6315
3270 6666
3270 7940
3270 7993
3270 8978
3271 4205
3271 4273
3271 4642
3271 4858
3271 6115
3271 6711
3271 7102
3271 7296
3272 3574
3272 4276
3272 5178
3272 5759
3272 8801
3273 3920
3273 4054
3273 5366
3273 6084
3273 7736
3273 7742
3273 8377
3274 3355
3274 4130
3274 4582
3274 5050
3274 5798
3274 6006
3274 6492
3274 7259
3274 7384
3274 7455
3274 7601
3274 9157
3274 9259
3275 4143
3275 4246
3275 4559
3275 5911
3275 6500
3275 7342
3275 7540
3275 7634
3275 8404
3275 8793
3275 9560
3275 9732
3276 4513
3276 4896
3276 6120
3276 7730
3277 3348
3277 3723
3277 3761
3277 3784
3277 3967
3277 4733
3277 4812
3277 6578
3277 6814
3277 7042
3277 7195
3277 7791
3277 8695
3277 9748
3278 3484
3278 3782
3278 3797
3278 3969
3278 4721
3278 4807
3278 7556
3278 8125
3278 9055
3278 9173
3279 3440
3279 3743
3279 4210
3279 4406
3279 4790
3279 6359
3279 6503
3279 7024
3279 8522
3280 3351
3280 4059
3280 4713
3280 5748
3280 7552
3280 8185
3280 8658
3280 8943
3281 3558
3281 3585
3281 3931
3281 4220
3281 4298
3281 4465
3281 5257
3281 6440
3281 6804
3281 7814
3281 8317
3281 8845
3282 3408
3282 3676
3282 5336
3282 5375
3282 6618
3282 6842
3282 7473
3282 7642
3282 7889
3283 3738
3283 5038
3283 5344
3283 6454
3283 6492
3283 6562
3283 8044
3283 9786
3284 4293
3284 4886
3284 5553
3284 8087
3284 9115
3284 9483
3284 9723
3285 4150
3285 4246
3285 5134
3285 5531
3285 6333
3285 7481
3285 9711
3286 3474
3286 3823
3286 6027
3286 6157
3286 6476
3286 7064
3286 9595
3286 9729
3287 4771
3287 4919
3287 5912
3287 6171
3287 6443
3287 6680
3287 6714
3287 6782
3287 6833
3287 7017
3287 7453
3287 7501
3287 7832
3287 8112
3287 8117
3287 8620
3287 8833
3287 9482
3287 9820
3287 9891
3288 3418
3288 5251
3288 6483
3288 6719
3288 7069
3288 7757
3288 8230
3288 8832
3288 9023
3288 9774
3289 3673
3289 3701
3289 3995
3289 4353
3289 4594
3289 4629
3289 4760
3289 5092
3289 5361
3289 5606
3289 6354
3289 6408
3289 6946
3289 7139
3289 7169
3289 7257
3289 7486
3289 7622
3289 7859
3289 7952
3289 7981
3289 8561
3289 9656
3289 9810
3290 4016
3290 4484
3290 4503
3290 5490
3290 5809
3290 5984
3290 6077
3290 6224
3290 6278
3290 6603
3290 6722
3290 7590
3290 8075
3290 8814
3290 9451
3290 9969
3291 3334
3291 3482
3291 3608
3291 3829
3291 4258
3291 4283
3291 4753
3291 4827
3291 4904
3291 4924
3291 5387
3291 5630
3291 5795
3291 6284
3291 6300
3291 6427
3291 6757
3291 6861
3291 6891
3291 7050
3291 7181
3291 7354
3291 7582
3291 7829
3291 8435
3291 8583
3291 8626
3291 8655
3291 9407
3292 3841
3292 6771
3292 6888
3292 7345
3292 8261
3292 8943
3292 9601
3293 3637
3293 3777
3293 3914
3293 4211
3293 4229
3293 4340
3293 4523
3293 5036
3293 5782
3293 5924
3293 6031
3293 6103
3293 6310
3293 6326
3293 6559
3293 6610
3293 6634
3293 7427
3293 7792
3293 8369
3293 8470
3293 8778
3293 9165
3293 9210
3294 3701
3294 4616
3294 4733
3294 4737
3294 5207
3294 5248
3294 5985
3294 7536
3295 3324
3295 3422
3295 3449
3295 3773
3295 4283
3295 4827
3295 4937
3295 4998
3295 5639
3295 5675
3295 6794
3295 6994
3295 8852
3295 9056
3295 9198
3295 9200
3296 4197
3296 4533
3296 5594
3296 6776
3296 7505
3297 3366
3297 5114
3297 5894
3297 5949
3297 6594
3297 7757
3297 7783
3297 8058
3298 3749
3298 3820
3298 3946
3298 3954
3298 4272
3298 5943
3298 6526
3298 6710
3298 6964
3298 7400
3298 7917
3299 3540
3299 3839
3299 4178
3299 4345
3299 4793
3299 5562
3299 6372
3299 6482
3299 6483
3299 6594
3299 6646
3299 7382
3299 7465
3299 7627
3299 8114
3299 8459
3299 8562
3299 9304
3299 9447
3299 9478
3299 9820
3300 3758
3300 3839
3300 4617
3300 7285
3300 7340
3300 7509
3300 8541
3300 9088
3300 9101
3300 9489
3300 9667
3300 9753
3301 3441
3301 4698
3301 4781
3301 5419
3301 6194
3301 6609
3301 6741
3301 7124
3301 7287
3301 7929
3302 4295
3302 4549
3302 7802
3302 9171
3302 9241
3302 9484
3303 3704
3303 4221
3303 5501
3303 6442
3303 7126
3303 7365
3303 7525
3303 7681
3303 7902
3303 7915
3303 8622
3303 9339
3304 3563
3304 4072
3304 4100
3304 4262
3304 4566
3304 5050
3304 5635
3304 5941
3304 6282
3304 6469
3304 6588
3304 7053
3304 7345
3304 7538
3304 7705
3304 7724
3304 7742
3304 8389
3304 8777
3304 8949
3304 9331
3304 9460
3304 9506
3305 3939
3305 4702
3305 5468
3305 5742
3305 5969
3305 9029
3306 4265
3306 5436
3306 5736
3306 6443
3306 7405
3306 9149
3307 3980
3307 4234
3307 4268
3307 4273
3307 4380
3307 4485
3307 5928
3307 6891
3307 7115
3307 9569
3308 5135
3308 5239
3308 5401
3308 5875
3308 6388
3308 6474
3308 6818
3308 7265
3308 7293
3308 9192
3308 9217
3309 4974
3309 5548
3309 8308
3309 9872
3309 9939
3310 3559
3310 3889
3310 5013
3310 6080
3310 6348
3310 6545
3310 7470
3310 7907
3310 8367
3310 8386
3310 9173
3310 9931
3311 3935
3311 5756
3311 7038
3311 7767
3311 8292
3311 8355
3312 3436
3312 3877
3312 4279
3312 4911
3312 6306
3312 6378
3312 6404
3312 6648
3312 7293
3312 7700
3312 7908
3312 8169
3312 9919
3313 4829
3313 6006
3313 6042
3313 6049
3313 6119
3313 7442
3313 7485
3313 8207
3313 9581
3314 4626
3314 4898
3314 4945
3314 5226
3314 5493
3314 6576
3314 7111
3314 7183
3314 7426
3314 8138
3314 8621
3315 3959
3315 4081
3315 4086
3315 4230
3315 4975
3315 5103
3315 5367
3315 5523
3315 5540
3315 5738
3315 6568
3315 7574
3315 8118
3315 8202
3315 8536
3315 8835
3315 9094
3315 9130
3315 9245
3315 9488
3316 4164
3316 4782
3316 4818
3316 5774
3316 6952
3316 7635
3316 7831
3316 8193
3316 8777
3316 9173
3316 9667
3316 9688
3317 3686
3317 3751
3317 4265
3317 5832
3317 6880
3317 6896
3317 7154
3317 7406
3317 7554
3317 7936
3317 8484
3317 8684
3317 8837
3317 8984
3317 9015
3317 9820
3317 9839
3317 9892
3318 4083
3318 4293
3318 4447
3318 5398
3318 5739
3318 6528
3318 8193
3318 8313
3318 8879
3318 9690
3319 3329
3319 3768
3319 3794
3319 3803
3319 4173
3319 4656
3319 5225
3319 5320
3319 5501
3319 5646
3319 6017
3319 6607
3319 6982
3319 7586
3319 8095
3319 8108
3319 8426
3319 8633
3319 8864
3319 9170
3319 9246
3319 9322
3319 9537
3319 9639
3320 3788
3320 4200
3320 4490
3320 5303
3320 7518
3320 8116
3320 8394
3320 8559
3320 8964
3320 9039
3321 4329
3321 4932
3321 5074
3321 5412
3321 6124
3321 8071
3321 8901
3321 9684
3321 9707
3322 4573
3322 5976
3322 6344
3322 6369
3322 6727
3322 8063
3322 9047
3322 9267
3323 5472
3323 6405
3323 7311
3323 8459
3323 8465
3323 8651
3323 8874
3323 9290
3323 9779
3323 9800
3324 3352
3324 3422
3324 3449
3324 3711
3324 3749
3324 3773
3324 4118
3324 4148
3324 4495
3324 4592
3324 5373
3324 5711
3324 6537
3324 6885
3324 7485
3324 7514
3324 7584
3324 7769
3324 9198
3324 9387
3324 9531
3324 9986
3325 3507
3325 3540
3325 3568
3325 3797
3325 3927
3325 5483
3325 6064
3325 6290
3325 6306
3325 6732
3325 7740
3325 8539
3325 8679
3325 9693
3326 5093
3326 5238
3326 7361
3326 8246
3326 8698
3326 8734
3326 8777
3326 9092
3327 3463
3327 4444
3327 5485
3327 5938
3327 7717
3327 7724
3327 8126
3327 8268
3327 8722
3327 9203
3328 3348
3328 4306
3328 4617
3328 5406
3328 6972
3328 7435
3328 8534
3328 8549
3328 8558
3328 9042
3328 9357
3329 4061
3329 4374
3329 5687
3329 6295
3329 6741
3329 7913
3329 8346
3329 8775
3329 9976
3330 4118
3330 4270
3330 5247
3330 5302
3330 5593
3330 5927
3330 6217
3330 7290
3330 7757
3330 8907
3331 3394
3331 3553
3331 3869
3331 4151
3331 5038
3331 5282
3331 6719
3331 7048
3331 7620
3331 8138
3331 8433
3331 9786
3331 9951
3332 4849
3332 5629
3332 6074
3332 6135
3332 6813
3332 8137
3332 8179
3332 8235
3332 9269
3333 5496
3333 6056
3333 6627
3333 7124
3333 7244
3333 7416
3333 8121
3333 8938
3333 9116
3333 9405
3334 3972
3334 5373
3334 6293
3334 6427
3334 7036
3334 7998
3334 8188
3334 8902
3334 9152
3335 4583
3335 5679
3335 8031
3335 8870
3335 9447
3336 3739
3336 4857
3336 4905
3336 5577
3336 5933
3336 5934
3336 6228
3336 6434
3336 6880
3336 7239
3336 8147
3336 8301
3336 8361
3336 8776
3336 8901
3337 5156
3337 5285
3337 5469
3337 6398
3337 6419
3337 6695
3337 7867
3337 7937
3337 8295
3337 8885
3337 9739
3338 3886
3338 6593
3338 8076
3338 8634
3338 9310
3339 3452
3339 3854
3339 4166
3339 5429
3339 5490
3339 6020
3339 7143
3339 7484
3339 7800
3339 8337
3339 9704
3339 9786
3340 4442
3340 5479
3340 5915
3340 5982
3340 6270
3340 6406
3340 6629
3340 7740
3340 8891
3340 8915
3341 4175
3341 4723
3341 7275
3341 7804
3341 8369
3342 3485
3342 3716
3342 4159
3342 4757
3342 5241
3342 5274
3342 5323
3342 5522
3342 5867
3342 6465
3342 6566
3342 7395
3342 9033
3342 9057
3342 9552
3342 9795
3343 3882
3343 5306
3343 5729
3343 6419
3343 7328
3343 7915
3343 8058
3343 8219
3343 8305
3343 8372
3343 9502
3344 5800
3344 5974
3344 6488
3344 7205
3344 7422
3344 7476
3344 7791
3344 7868
3344 8488
3344 8866
3344 9549
3345 3940
3345 5762
3345 6509
3345 7204
3345 7789
3345 8444
3345 8658
3345 8851
3345 8995
3345 9233
3345 9351
3345 9502
3345 9504
3345 9989
3346 5370
3346 6276
3346 6489
3346 7042
3346 8181
3346 8230
3346 8362
3347 3775
3347 3819
3347 3926
3347 4169
3347 4273
3347 5270
3347 5349
3347 6002
3347 6382
3347 6393
3347 7245
3347 7602
3347 9366
3348 3393
3348 3584
3348 3617
3348 3761
3348 3772
3348 5409
3348 5670
3348 6353
3348 7361
3348 7625
3348 8088
3348 8695
3348 9255
3348 9483
3348 9510
3348 9656
3348 9748
3349 3450
3349 4116
3349 4156
3349 4453
3349 4513
3349 4897
3349 4936
3349 5083
3349 5346
3349 5409
3349 5747
3349 6082
3349 6377
3349 6684
3349 7583
3349 7735
3349 7880
3349 8114
3349 8433
3349 8509
3349 8572
3349 8759
3349 9070
3349 9623
3349 9902
3350 5298
3350 6210
3350 6236
3350 6532
3350 6996
3350 7276
3350 7371
3350 7908
3350 7950
3350 7985
3350 8190
3350 8228
3350 8486
3350 8939
3351 3367
3351 3619
3351 3758
3351 3918
3351 4122
3351 4493
3351 5091
3351 5203
3351 5438
3351 5465
3351 5530
3351 5558
3351 5618
3351 5982
3351 6172
3351 6560
3351 6967
3351 7279
3351 7298
3351 7308
3351 7539
3351 8882
3351 9114
3351 9450
3351 9841
3352 3406
3352 4191
3352 6372
3352 7132
3352 8285
3352 8674
3352 9359
3353 4775
3353 5111
3353 5716
3353 6355
3353 6867
3353 7018
3353 7266
3353 7499
3353 7564
3353 8857
3354 3500
3354 3570
3354 3747
3354 3793
3354 4371
3354 4595
3354 4990
3354 4999
3354 5230
3354 5475
3354 5687
3354 5894
3354 6239
3354 6365
3354 6371
3354 6395
3354 7569
3354 7651
3354 7702
3354 7812
3354 8333
3354 8448
3354 8482
3354 8595
3354 8606
3354 8827
3354 9721
3354 9906
3355 3577
3355 3721
3355 4068
3355 4137
3355 4534
3355 4732
3355 5700
3355 5862
3355 5878
3355 6007
3355 6081
3355 6268
3355 6473
3355 6495
3355 6606
3355 6627
3355 6667
3355 7041
3355 7341
3355 7665
3355 7793
3355 7898
3355 8032
3355 8089
3355 8170
3355 8477
3355 8546
3355 8590
3355 8908
3355 9225
3355 9561
3355 9651
3356 5652
3356 5699
3356 5733
3356 7999
3356 9780
3357 4488
3357 4894
3357 5907
3357 6438
3357 6955
3357 7100
3357 7576
3357 8422
3357 9052
3357 9170
3357 9458
3358 4870
3358 4874
3358 4913
3358 7023
3358 7045
3358 7143
3358 7791
3358 8219
3358 8435
3358 8812
3358 9661
3358 9733
3358 9742
3359 4733
3359 5140
3359 5370
3359 5799
3359 6299
3359 7406
3359 7472
3359 9575
3360 4038
3360 4204
3360 4235
3360 4687
3360 4871
3360 5011
3360 5900
3360 6481
3360 6625
3360 6939
3360 6980
3360 8484
3360 9589
3360 9995
3361 5011
3361 6347
3361 6452
3361 7561
3361 7594
3361 7954
3361 8103
3362 3446
3362 3573
3362 4120
3362 4246
3362 6309
3362 6363
3362 6396
3362 7767
3363 3440
3363 3606
3363 3640
3363 4147
3363 5932
3363 7338
3363 8513
3363 8672
3363 8922
3363 9176
3363 9282
3364 3677
3364 4444
3364 4870
3364 6229
3364 6838
3364 7174
3364 7838
3364 7870
3364 8085
3364 8757
3364 9362
3364 9893
3365 3810
3365 4145
3365 5005
3365 5694
3365 6741
3365 7893
3365 9199
3365 9285
3366 3821
3366 4586
3366 4701
3366 5111
3366 5951
3366 6677
3366 6936
3366 7035
3366 7352
3366 7570
3366 7783
3366 8035
3366 8284
3366 8435
3366 9044
3366 9081
3366 9303
3366 9559
3366 9565
3366 9845
3366 9992
3367 5690
3367 5944
3367 6428
3367 6589
3367 7279
3367 9210
3367 9692
3368 4080
3368 4223
3368 6906
3368 6977
3368 7080
3368 7744
3368 8312
3368 9058
3368 9109
3368 9168
3368 9607
3369 5253
3369 6404
3369 6441
3369 6649
3369 8196
3369 8547
3369 8758
3369 9471
3370 3677
3370 3898
3370 3927
3370 4004
3370 4412
3370 4536
3370 4910
3370 4999
3370 6087
3370 6155
3370 6214
3370 6237
3370 6561
3370 6893
3370 6906
3370 7062
3370 7274
3370 7620
3370 7930
3370 8063
3370 8220
3370 8239
3370 8724
3370 9533
3371 4240
3371 4738
3371 5429
3371 6348
3371 7156
3371 7364
3371 8855
3371 9061
3371 9232
3371 9577
3371 9582
3371 9621
3371 9724
3372 3589
3372 3704
3372 4099
3372 5993
3372 6842
3372 8108
3372 8907
3373 3588
3373 4139
3373 4177
3373 4720
3373 5894
3373 6382
3373 8937
3374 4551
3374 4757
3374 4980
3374 5182
3374 5569
3374 5617
3374 7088
3374 8301
3374 8906
3375 4685
3375 5782
3375 6252
3375 6545
3375 7050
3375 8719
3375 9100
3375 9116
3376 3466
3376 5165
3376 5972
3376 6124
3376 6225
3376 6569
3376 8502
3376 9122
3377 3461
3377 4278
3377 4515
3377 4635
3377 4758
3377 5138
3377 6543
3377 6946
3377 7088
3377 8263
3377 9317
3377 9499
3378 3625
3378 5401
3378 5475
3378 6714
3378 8386
3378 8634
3378 8782
3378 8829
3378 9379
3378 9466
3379 4343
3379 4680
3379 6147
3379 6532
3379 6635
3379 9541
3379 9887
3380 3737
3380 4626
3380 5037
3380 6402
3380 6597
3380 7244
3380 7532
3380 7579
3380 8043
3380 8136
3380 8355
3380 8444
3380 8746
3380 8840
3380 8904
3380 9992
3381 3433
3381 4596
3381 5344
3381 5354
3381 5740
3381 6450
3381 6460
3381 8298
3381 8492
3381 9325
3381 9618
3381 9938
3382 5609
3382 7907
3382 7929
3382 8447
3382 8650
3382 8669
3382 8849
3382 8891
3382 9052
3382 9423
3382 9594
3383 3937
3383 5788
3383 5893
3383 6295
3383 6477
3383 6583
3383 6630
3383 6674
3383 7068
3384 3651
3384 3832
3384 5013
3384 6196
3384 6373
3384 6649
3384 8445
3384 8873
3384 8897
3384 9387
3385 4637
3385 4768
3385 5376
3385 7648
3385 8661
3385 8849
3385 9950
3386 4829
3386 5717
3386 5764
3386 6042
3386 7054
3386 7437
3386 7602
3386 7635
3386 9714
3387 3913
3387 4637
3387 5125
3387 5591
3387 5596
3387 6490
3387 7567
3387 8058
3387 8392
3387 8564
3387 9415
3388 3439
3388 3661
3388 3663
3388 4250
3388 4547
3388 4565
3388 4726
3388 5044
3388 5082
3388 5219
3388 6072
3388 6462
3388 6849
3388 7018
3388 7197
3388 7725
3388 8092
3388 8387
3388 8715
3388 8808
3388 9046
3389 4798
3389 5452
3389 6247
3389 6345
3389 8369
3389 8982
3389 9208
3389 9807
3389 9992
3390 3513
3390 3771
3390 3860
3390 4008
3390 6564
3390 7485
3390 8167
3390 8876
3390 9092
3390 9789
3390 9816
3391 3951
3391 3963
3391 4014
3391 4800
3391 6872
3391 7523
3391 8200
3391 9721
3392 3984
3392 4131
3392 5249
3392 5829
3392 6116
3392 6170
3392 6483
3392 7485
3392 9378
3392 9820
3393 4134
3393 4375
3393 4467
3393 4501
3393 4793
3393 7745
3393 7794
3393 7898
3393 7913
3393 8527
3393 8818
3393 9071
3393 9531
3394 3630
3394 3756
3394 5157
3394 5985
3394 8638
3394 9116
3394 9685
3395 4369
3395 5015
3395 5572
3395 5980
3395 7571
3395 7721
3395 8022
3395 9646
3396 3668
3396 3888
3396 4180
3396 4344
3396 4852
3396 5691
3396 5716
3396 6074
3396 6413
3396 8777
3396 9216
3396 9279
3396 9823
3397 3910
3397 4488
3397 5067
3397 6424
3397 6463
3397 7068
3397 8568
3397 8639
3397 9630
3397 9968
3398 3452
3398 4406
3398 5606
3398 6554
3398 7647
3398 9325
3398 9439
3398 9912
3399 3573
3399 5612
3399 5710
3399 5729
3399 5855
3399 5924
3399 6143
3399 6373
3399 6957
3399 7180
3399 7413
3399 7650
3399 7690
3399 8374
3399 9481
3399 9768
3400 4177
3400 4781
3400 5166
3400 5638
3400 5657
3400 6961
3400 7045
3400 7397
3400 9135
3400 9343
3400 9985
3401 4360
3401 5088
3401 8100
3401 8202
3402 3687
3402 3808
3402 4095
3402 5189
3402 5302
3402 6603
3402 7758
3402 7889
3402 8025
3402 8575
3402 9765
3403 4661
3403 4764
3403 4960
3403 5319
3403 6468
3403 6514
3403 8530
3403 9146
3404 3520
3404 3577
3404 3820
3404 3917
3404 4579
3404 4642
3404 4898
3404 5181
3404 6275
3404 6371
3404 6426
3404 6761
3404 6808
3404 6871
3404 6880
3404 7103
3404 7110
3404 7457
3404 7864
3404 7876
3404 7958
3404 8267
3404 8331
3404 8468
3404 8711
3404 8780
3404 9083
3404 9117
3404 9461
3404 9648
3404 9732
3405 3410
3405 3418
3405 4134
3405 5368
3405 6218
3405 6654
3405 6878
3405 6964
3405 7520
3405 8182
3405 9674
3405 9985
3406 5654
3406 6399
3406 6813
3406 9257
3407 4163
3407 4580
3407 4691
3407 4853
3407 4978
3407 7061
3407 7245
3407 8203
3407 8565
3407 8713
3407 9538
3408 3466
3408 4268
3408 4519
3408 5270
3408 5374
3408 5437
3408 5462
3408 5693
3408 5757
3408 5759
3408 6139
3408 6204
3408 6339
3408 6449
3408 6612
3408 6675
3408 6829
3408 6845
3408 7077
3408 7361
3408 7698
3408 7797
3408 7993
3408 8044
3408 8321
3408 8350
3408 8364
3408 8644
3408 8998
3408 9154
3408 9195
3408 9372
3408 9899
3409 3459
3409 3482
3409 4391
3409 4463
3409 4678
3409 4869
3409 5015
3409 6028
3409 7254
3409 7397
3409 7450
3409 7460
3409 7677
3409 8324
3409 9672
3409 9868
3410 3687
3410 3905
3410 4048
3410 4602
3410 4979
3410 6625
3410 6851
3410 7037
3410 7513
3410 7751
3410 8608
3410 8981
3410 9432
3410 9447
3410 9755
3411 5600
3411 5714
3411 5761
3411 6358
3411 6925
3411 7372
3411 7601
3411 8018
3411 8539
3412 4803
3412 5105
3412 6995
3412 7114
3412 8138
3412 8530
3413 4090
3413 4150
3413 4155
3413 4349
3413 5241
3413 5626
3413 6155
3413 6390
3413 6731
3413 8131
3413 9097
3413 9663
3414 3684
3414 4317
3414 4477
3414 5415
3414 5737
3414 5871
3414 5992
3414 6476
3414 6665
3414 6809
3414 7417
3414 8951
3414 9516
3415 4280
3415 4680
3415 4794
3415 5125
3415 6019
3415 7338
3415 7386
3415 8236
3415 8727
3415 9155
3415 9360
3416 6167
3416 6230
3416 6634
3416 6851
3416 7115
3416 7172
3416 8647
3416 8881
3416 8908
3416 9298
3416 9711
3417 3452
3417 4193
3417 6119
3417 6141
3417 6181
3417 6293
3417 6726
3417 7085
3417 7485
3417 9074
3418 3509
3418 3650
3418 3726
3418 3868
3418 4676
3418 4913
3418 5097
3418 5112
3418 5254
3418 6052
3418 6126
3418 6177
3418 6323
3418 6478
3418 6535
3418 7040
3418 7660
3418 7905
3418 7927
3418 9572
3418 9630
3418 9793
3418 9847
3419 4484
3419 5645
3419 7103
3419 7795
3419 9146
3419 9861
3420 3466
3420 5572
3420 5827
3420 6430
3420 9129
3421 6104
3421 6105
3421 6486
3421 6580
3421 7536
3421 8220
3421 9122
3421 9973
3422 3449
3422 3773
3422 3963
3422 4131
3422 5311
3422 7421
3422 7806
3423 3680
3423 4493
3423 5050
3423 7513
3423 7980
3423 7986
3423 8264
3423 9389
3424 3510
3424 5076
3424 5438
3424 6842
3425 3624
3425 4445
3425 4953
3425 5568
3425 5619
3425 5737
3425 5959
3425 5997
3425 6590
3425 7840
3425 8144
3425 8854
3425 8958
3425 9100
3425 9185
3425 9206
3425 9338
3425 9578
3425 9606
3426 4137
3426 4880
3426 5204
3426 6201
3426 8412
3426 8820
3426 9017
3426 9042
3426 9183
3426 9923
3427 3584
3427 4393
3427 4503
3427 4901
3427 5128
3427 5272
3427 5500
3427 6388
3427 6821
3427 6919
3427 7341
3427 8007
3427 8188
3427 8374
3427 8938
3427 9214
3428 5119
3428 6406
3428 6432
3428 6758
3428 7263
3428 8467
3428 8901
3428 9768
3429 3798
3429 4181
3429 4326
3429 4452
3429 4542
3429 4904
3429 6561
3429 6818
3429 7087
3429 8472
3429 9162
3429 9599
3430 4625
3430 4626
3430 6765
3430 8244
3430 8629
3431 3598
3431 3641
3431 3762
3431 4201
3431 4582
3431 4833
3431 5741
3431 5886
3431 5913
3431 6192
3431 6280
3431 7915
3431 8176
3431 8682
3431 8924
3431 9643
3432 4150
3432 4766
3432 5292
3432 7575
3432 7662
3432 7683
3432 8645
3432 9058
3432 9156
3432 9414
3432 9725
3433 4596
3433 5556
3433 5703
3433 7412
3433 8420
3433 9398
3434 3726
3434 8105
3434 8352
3434 8467
3434 8775
3434 9644
3435 3674
3435 4040
3435 8091
3435 8500
3436 4279
3436 4350
3436 4593
3436 5765
3436 5871
3436 6306
3436 6715
3436 7700
3436 9064
3437 3738
3437 4525
3437 5245
3437 5931
3437 6263
3437 6280
3437 6335
3437 6900
3437 7071
3437 7176
3437 7411
3437 7792
3437 7833
3437 7875
3437 8023
3437 8824
3437 9043
3437 9448
3438 3940
3438 4845
3438 5642
3438 5772
3438 6418
3438 7081
3438 8137
3438 9200
3439 3714
3439 3804
3439 3896
3439 4986
3439 8042
3439 9014
3439 9466
3439 9491
3440 3743
3440 4138
3440 4187
3440 5657
3440 6137
3440 7024
3440 7240
3440 8792
3441 3526
3441 3946
3441 4162
3441 7460
3441 8290
3441 9748
3441 9863
3442 4024
3442 4029
3442 4515
3442 4616
3442 5407
3442 6035
3442 6083
3442 6114
3442 6541
3442 6996
3442 7485
3442 7507
3442 7521
3442 7549
3442 7580
3442 7935
3442 8053
3442 8266
3442 8580
3442 8671
3442 8686
3442 9502
3442 9624
3442 9632
3442 9683
3442 9804
3442 9885
3442 9932
3442 9943
3443 3702
3443 4191
3443 4821
3443 5497
3443 5639
3443 6937
3443 8893
3443 9380
3444 4104
3444 4187
3444 4283
3444 4682
3444 5199
3444 6005
3444 6099
3444 6246
3444 6326
3444 6805
3444 6970
3444 6989
3444 7296
3444 7530
3444 8354
3445 4258
3445 5003
3445 5033
3445 5243
3445 5304
3445 5435
3445 5513
3445 5947
3445 6118
3445 7276
3445 8302
3445 8568
3445 8610
3445 8619
3445 8979
3445 9125
3445 9296
3445 9458
3445 9943
3446 4246
3446 4344
3446 4714
3446 5148
3446 5291
3446 5568
3446 6251
3446 6363
3446 6509
3446 6558
3446 7027
3446 7109
3446 7465
3446 9170
3446 9764
3446 9846
3446 9870
3447 3936
3447 4019
3447 4342
3447 5039
3447 5423
3447 5988
3447 6241
3447 7180
3447 8073
3447 8134
3447 8176
3447 8192
3448 3757
3448 4515
3448 5932
3448 6044
3448 7733
3448 8497
3448 8593
3448 8641
3448 8773
3448 8776
3449 5215
3449 5226
3450 4116
3450 5656
3450 6082
3450 6368
3450 6669
3450 6871
3450 7735
3450 8572
3450 9181
3451 5150
3451 5219
3451 7053
3451 8092
3451 8657
3451 9423
3452 3574
3452 3575
3452 4230
3452 4406
3452 4482
3452 4729
3452 4863
3452 5404
3452 5580
3452 5606
3452 5786
3452 5927
3452 5933
3452 6278
3452 7426
3452 7860
3452 7941
3452 7996
3452 8253
3452 8409
3452 8677
3452 8750
3452 9184
3452 9252
3452 9513
3452 9640
3452 9832
3452 9880
3453 3714
3453 3777
3453 6101
3453 7972
3453 8820
3454 4706
3454 6111
3454 6198
3454 7808
3454 8139
3454 8167
3454 9801
3455 4522
3455 5884
3455 6097
3455 6108
3455 6624
3455 6810
3455 7262
3455 7403
3455 9297
3455 9392
3455 9658
3455 9903
3456 3729
3456 3774
3456 4439
3456 5052
3456 6739
3456 6884
3456 7733
3456 7870
3456 7904
3456 8163
3456 8234
3456 8410
3456 9000
3456 9080
3456 9228
3457 3576
3457 4622
3457 5188
3457 5295
3457 5762
3457 5827
3457 5895
3457 5973
3457 6032
3457 6827
3457 9134
3457 9492
3457 9824
3457 9827
3458 4280
3458 5813
3459 3481
3459 3574
3459 4189
3459 5450
3459 7094
3459 7099
3459 7985
3459 8516
3459 8570
3460 3586
3460 3769
3460 4371
3460 5591
3460 6085
3460 8191
3460 8249
3461 3661
3461 4507
3461 4521
3461 4567
3461 4951
3461 5296
3461 5480
3461 6458
3461 6864
3461 7635
3461 9302
3461 9380
3461 9919
3462 3576
3462 3810
3462 4691
3462 5114
3462 6148
3462 6200
3462 6211
3462 6370
3462 6483
3462 6511
3462 7023
3462 7609
3462 8450
3462 9061
3462 9074
3462 9463
3462 9543
3463 4904
3463 5174
3463 5246
3463 5328
3463 5476
3463 5539
3463 5599
3463 5802
3463 5817
3463 6690
3463 7019
3463 7031
3463 7336
3463 7689
3463 8804
3463 9179
3463 9305
3463 9576
3463 9717
3463 9938
3464 3658
3464 3661
3464 3666
3464 3669
3464 3774
3464 4765
3464 4810
3464 4952
3464 5129
3464 5130
3464 5504
3464 5816
3464 6360
3464 6664
3464 6684
3464 6926
3464 7166
3464 7542
3464 7606
3464 8326
3464 8406
3464 8632
3464 8673
3464 9527
3464 9629
3464 9686
3465 5056
3465 6499
3465 6824
3466 4075
3466 4194
3466 4245
3466 4284
3466 4363
3466 4493
3466 4846
3466 5318
3466 5329
3466 5524
3466 6322
3466 6608
3466 6625
3466 7385
3466 7522
3466 7819
3466 8142
3466 8298
3466 8449
3466 8636
3466 8948
3466 9286
3466 9425
3466 9458
3466 9688
3467 3653
3467 5927
3467 6427
3467 6649
3467 8664
3467 9551
3468 5174
3468 5632
3468 6323
3468 7485
3468 8825
3468 9660
3469 3864
3469 4120
3469 4134
3469 7142
3469 8687
3470 4060
3470 5419
3470 6003
3470 6375
3470 7515
3470 7714
3470 7911
3470 7915
3471 3495
3471 4404
3471 4699
3471 4744
3471 5339
3471 5477
3471 6079
3471 7328
3471 8632
3471 8932
3471 9385
3472 4533
3472 5483
3472 5569
3472 5639
3472 5940
3472 6210
3472 7176
3472 8004
3472 8242
3472 9637
3472 9960
3473 3877
3473 4989
3473 4994
3473 5706
3473 5866
3473 6153
3473 6339
3473 6433
3473 6485
3473 6524
3473 6825
3473 6850
3473 7391
3473 8294
3473 8665
3473 8714
3473 9623
3474 3483
3474 3648
3474 3870
3474 3926
3474 4185
3474 4308
3474 5266
3474 5404
3474 5764
3474 5897
3474 5938
3474 6129
3474 6665
3474 7019
3474 7077
3474 7250
3474 8958
3474 9085
3475 4927
3475 5259
3475 5721
3475 6327
3475 6345
3475 6633
3475 6878
3475 7512
3475 7670
3475 8759
3475 9243
3475 9445
3475 9594
3476 4466
3476 5029
3476 5174
3476 5531
3476 5850
3476 6360
3476 7153
3476 8567
3476 8897
3476 9438
3476 9465
3476 9880
3477 4035
3477 4199
3477 4444
3477 4465
3477 4786
3477 4819
3477 5149
3477 5378
3477 5915
3477 6046
3477 6052
3477 6198
3477 6339
3477 6358
3477 7027
3477 7156
3477 7364
3477 7585
3477 7658
3477 8011
3477 8071
3477 9237
3477 9284
3477 9799
3478 4437
3478 4707
3478 4760
3478 5016
3478 6972
3478 7065
3478 7228
3478 7710
3478 8670
3478 8709
3478 9747
3479 3556
3479 4180
3479 4503
3479 5891
3479 5908
3479 5979
3479 7528
3479 8459
3480 3865
3480 4193
3480 6309
3480 6371
3480 6972
3480 7080
3480 7242
3480 7857
3480 7868
3480 9572
3481 3977
3481 4560
3481 4735
3481 5215
3481 5496
3481 6350
3481 6456
3481 7471
3481 7593
3481 7598
3481 7785
3481 8165
3481 8398
3481 9069
3481 9694
3481 9961
3482 3848
3482 5912
3482 6920
3482 7051
3482 8549
3483 4687
3483 4839
3483 5501
3483 5854
3483 6120
3483 6396
3483 6486
3483 6580
3483 6644
3483 7825
3483 8085
3483 8104
3484 3574
3484 3735
3484 4407
3484 4982
3484 7292
3484 7589
3484 7648
3484 8467
3484 9055
3484 9746
3485 3797
3485 5973
3485 6308
3485 6372
3485 6827
3485 6988
3485 8368
3485 8428
3485 8541
3485 8547
3485 9588
3485 9713
3486 4050
3486 5222
3486 5228
3486 5308
3486 5585
3486 5890
3486 6794
3486 8901
3486 8995
3486 9152
3486 9357
3487 3607
3487 3814
3487 3954
3487 4434
3487 4782
3487 7088
3487 8722
3487 8878
3487 9744
3488 3978
3488 4304
3488 4318
3488 4665
3488 4827
3488 4897
3488 4927
3488 5493
3488 5948
3488 5952
3488 6635
3488 6992
3488 9158
3488 9312
3488 9761
3489 3821
3489 4591
3489 4792
3489 5082
3489 5135
3489 5445
3489 6633
3489 7493
3489 7714
3489 7968
3489 9413
3489 9415
3490 3863
3490 3891
3490 4295
3490 4535
3490 5051
3490 5131
3490 5520
3490 5808
3490 5830
3490 5944
3490 5950
3490 6387
3490 6501
3490 6739
3490 7507
3490 7794
3490 8041
3490 8237
3490 8442
3490 8527
3490 8623
3490 8992
3490 9019
3490 9065
3490 9974
3490 9995
3491 3917
3491 4380
3491 7341
3491 7473
3491 8015
3491 9008
3491 9207
3491 9668
3492 3564
3492 4014
3492 5130
3492 5358
3492 6246
3492 6421
3492 6985
3492 7017
3492 7105
3492 9312
3492 9444
3493 3797
3493 4906
3493 5374
3493 7078
3493 7105
3493 7261
3493 7560
3493 8731
3494 3504
3494 4737
3494 5043
3494 5406
3494 5916
3494 6079
3494 6285
3494 6402
3494 6405
3494 6496
3494 6762
3494 6962
3494 7014
3494 7123
3494 7195
3494 7690
3494 8034
3494 8971
3494 9178
3494 9290
3494 9483
3494 9543
3495 3642
3495 4850
3495 5517
3495 5883
3495 6825
3495 8170
3495 8269
3495 9746
3495 9849
3496 3927
3496 4290
3496 4895
3496 6325
3496 6609
3496 6828
3496 7050
3496 7183
3496 7232
3496 7429
3496 7803
3496 8193
3496 8317
3496 8355
3496 8454
3496 8472
3496 9053
3496 9169
3496 9371
3496 9755
3496 9863
3497 3818
3497 4708
3497 5124
3497 5735
3497 5838
3497 7111
3497 7243
3497 7808
3497 8264
3497 8763
3497 8849
3497 9010
3498 4908
3498 6369
3498 6635
3498 8904
3498 9797
3499 4911
3499 6161
3499 7287
3499 8310
3499 8732
3499 9681
3500 3685
3500 3808
3500 4614
3500 5476
3500 5514
3500 5760
3500 6027
3500 6047
3500 6079
3500 6139
3500 6226
3500 6273
3500 6560
3500 6640
3500 6741
3500 6779
3500 7582
3500 8241
3500 8484
3500 8549
3500 8946
3500 9073
3500 9366
3500 9976
3501 3661
3501 3683
3501 4202
3501 6482
3501 8463
3501 8512
3501 8615
3501 9244
3501 9369
3502 3558
3502 5668
3502 5819
3502 6130
3502 6948
3502 8324
3502 9475
3503 3581
3503 5310
3503 5667
3503 8919
3503 9873
3504 3588
3504 4086
3504 4550
3504 5107
3504 5766
3504 5816
3504 5897
3504 6183
3504 6689
3504 7928
3504 9656
3505 5585
3505 6012
3505 6333
3505 6698
3505 6876
3505 7673
3505 8613
3505 9146
3506 3716
3506 4421
3506 4789
3506 5013
3506 5278
3506 5354
3506 5535
3506 6077
3506 6503
3506 7429
3506 8896
3506 9078
3507 3552
3507 4240
3507 4479
3507 4518
3507 4822
3507 5234
3507 5275
3507 5981
3507 6446
3507 6670
3507 6872
3507 6959
3507 7552
3507 7816
3507 8092
3507 8610
3507 8629
3507 9005
3507 9660
3507 9719
3508 4225
3508 4360
3508 5675
3508 8194
3508 8494
3508 9442
3509 3675
3509 3919
3509 4076
3509 4222
3509 4301
3509 5042
3509 5340
3509 5464
3509 5643
3509 5730
3509 5873
3509 6312
3509 6477
3509 6724
3509 8138
3509 8145
3509 8459
3509 8965
3509 9931
3510 3919
3510 4860
3510 5887
3510 8663
3510 8926
3510 9417
3511 4112
3511 4595
3511 4988
3511 5999
3511 8646
3511 8925
3512 5244
3512 5691
3512 6822
3512 7089
3512 7513
3512 9247
3512 9895
3513 3752
3513 3771
3513 4041
3513 6122
3513 6181
3513 6382
3513 6525
3513 8354
3513 9015
3513 9445
3513 9789
3514 6927
3514 7747
3514 7992
3514 8058
3514 8923
3514 9286
3515 3565
3515 3679
3515 3963
3515 4366
3515 4573
3515 5060
3515 5724
3515 5990
3515 7245
3515 7302
3515 7456
3515 9878
3516 3790
3516 4192
3516 4708
3516 5031
3516 5139
3516 7668
3516 7938
3516 8824
3516 8832
3517 3833
3517 4157
3517 4399
3517 4815
3517 6489
3517 7448
3517 7483
3517 7853
3517 8063
3517 9995
3518 3931
3518 4188
3518 4710
3518 6404
3518 6438
3518 6738
3518 6888
3518 7140
3518 7522
3518 8991
3518 9269
3518 9755
3518 9836
3518 9887
3519 3641
3519 3730
3519 3737
3519 3820
3519 5263
3519 5456
3519 5918
3519 5934
3519 6597
3519 7093
3519 7161
3519 7304
3519 7549
3519 7872
3519 8475
3520 4374
3520 4545
3520 5636
3520 6538
3520 7914
3520 8259
3520 9291
3520 9546
3520 9644
3520 9722
3520 9827
3520 9895
3521 3748
3521 3864
3521 4596
3521 5681
3521 5927
3521 6295
3521 6696
3521 7361
3521 7382
3521 7661
3521 7845
3522 5061
3522 5103
3522 5240
3522 7041
3522 7252
3522 7358
3522 7404
3522 7408
3522 7799
3522 8701
3522 9230
3522 9752
3523 4046
3523 4992
3523 5644
3523 7200
3523 8300
3523 8881
3523 9325
3523 9597
3523 9815
3524 3634
3524 4490
3524 5203
3524 5662
3524 5936
3524 6641
3524 6701
3524 7240
3524 7816
3524 8428
3524 9212
3524 9761
3525 3808
3525 4502
3525 4535
3525 4890
3525 5758
3525 5828
3525 5942
3525 5976
3525 6106
3525 6300
3525 6752
3525 6979
3525 7158
3525 7748
3525 8217
3525 8335
3525 8639
3525 8711
3525 8734
3525 8865
3525 9063
3525 9198
3525 9412
3525 9592
3526 3946
3526 4075
3526 5048
3526 6090
3526 7071
3526 7076
3526 7460
3526 8010
3526 8202
3526 8236
3526 8290
3526 9038
3526 9409
3527 4567
3527 5389
3527 5488
3527 5724
3527 6918
3527 7145
3527 8180
3527 8720
3527 9220
3527 9517
3527 9605
3528 3896
3528 4059
3528 4070
3528 4338
3528 4837
3528 5292
3528 7378
3528 7582
3528 9125
3528 9462
3528 9866
3529 3559
3529 4020
3529 5845
3529 6261
3529 7375
3529 8353
3529 8453
3530 4541
3530 4788
3530 6643
3530 7598
3530 8318
3530 8482
3530 8950
3530 9849
3531 4209
3531 4691
3531 6883
3531 7887
3531 9173
3531 9605
3532 4074
3532 4798
3532 5061
3532 5761
3532 5895
3532 6125
3532 6773
3532 8303
3532 9372
3532 9434
3532 9447
3532 9879
3533 4426
3533 4525
3533 5633
3533 5678
3533 5876
3533 7183
3533 7188
3533 7519
3533 8677
3534 4301
3534 4782
3534 4861
3534 5555
3534 5774
3534 5886
3534 5907
3534 6666
3534 6873
3534 6919
3534 7470
3534 7635
3534 7831
3534 8328
3534 9581
3534 9688
3535 4890
3535 6842
3535 6919
3535 6937
3535 7359
3535 8702
3535 9310
3535 9721
3536 3553
3536 3767
3536 4109
3536 5365
3536 5486
3536 5821
3536 6343
3536 6658
3536 7118
3536 7190
3536 9005
3536 9145
3536 9236
3536 9552
3536 9797
3536 9879
3537 3737
3537 4573
3537 4644
3537 6098
3537 6370
3537 7531
3537 7875
3537 9641
3538 4581
3538 7126
3538 7462
3538 8571
3538 9650
3539 3686
3539 4396
3539 5227
3539 5332
3539 5344
3539 5467
3539 5493
3539 5905
3539 7591
3539 8491
3539 8512
3539 8974
3539 9667
3540 3568
3540 3941
3540 4279
3540 4885
3540 5242
3540 5256
3540 5286
3540 5410
3540 6334
3540 6925
3540 6947
3540 6951
3540 6978
3540 7055
3540 7059
3540 7111
3540 7743
3540 7970
3540 8073
3540 8087
3540 8625
3540 8679
3540 8773
3540 8968
3540 9027
3540 9434
3540 9586
3540 9693
3541 3662
3541 4760
3541 5399
3541 6033
3541 6312
3541 6634
3541 6771
3541 7476
3541 7786
3541 8769
3541 9289
3542 4729
3542 5505
3542 5528
3542 6057
3542 6719
3542 7516
3542 7827
3542 8186
3542 9774
3543 3782
3543 4365
3543 4680
3543 5560
3543 5576
3543 5938
3543 6807
3543 8778
3543 8908
3543 9070
3543 9228
3543 9736
3544 4293
3544 4765
3544 5394
3544 5553
3544 6083
3544 6357
3544 8033
3544 8087
3544 8774
3544 9483
3545 3985
3545 4369
3545 5928
3545 6255
3545 6860
3545 7064
3545 8385
3545 8726
3545 8936
3545 9978
3546 4140
3546 4307
3546 4587
3546 5681
3546 6274
3546 8653
3547 4763
3547 5189
3547 5698
3547 6244
3547 7888
3547 8872
3547 9139
3547 9208
3547 9369
3547 9682
3548 3605
3548 3875
3548 4254
3548 4632
3548 4850
3548 5310
3548 5643
3548 6092
3548 6274
3548 6604
3548 7576
3548 8148
3548 8886
3548 9640
3548 9755
3549 3583
3549 3864
3549 4005
3549 4197
3549 5742
3549 8375
3549 9589
3550 3707
3550 3818
3550 4198
3550 4518
3550 4607
3550 4703
3550 4911
3550 5500
3550 5702
3550 5918
3550 6396
3551 3627
3551 4203
3551 4737
3551 5791
3551 7174
3551 7993
3551 9405
3552 3582
3552 3708
3552 4497
3552 4937
3552 5382
3552 5699
3552 5899
3552 5967
3552 5998
3552 6046
3552 6509
3552 7092
3552 7187
3552 7206
3552 7249
3552 7296
3552 7593
3552 8163
3552 8851
3552 9016
3552 9272
3552 9468
3552 9470
3552 9544
3553 3965
3553 4798
3553 4842
3553 5098
3553 5310
3553 5452
3553 6128
3553 6397
3553 8541
3553 8938
3553 9373
3554 6139
3554 7052
3554 7289
3554 7676
3554 8975
3554 9446
3555 3816
3555 3918
3555 4421
3555 4565
3555 4808
3555 4846
3555 5184
3555 5388
3555 6886
3555 7252
3555 8006
3555 8062
3555 8469
3555 9495
3555 9973
3556 4416
3556 6277
3556 6945
3556 7335
3556 7410
3556 7747
3556 7749
3556 7833
3556 8050
3556 8135
3556 8577
3556 8581
3556 9108
3556 9443
3557 3618
3557 4789
3557 5294
3557 5711
3557 6055
3557 6438
3557 7479
3557 7930
3557 8184
3557 8228
3557 8703
3557 9381
3557 9398
3558 4350
3558 5560
3558 7168
3558 7385
3558 7856
3558 9010
3558 9830
3559 3889
3559 4181
3559 4322
3559 4330
3559 4568
3559 4949
3559 5013
3559 5587
3559 6295
3559 6348
3559 6445
3559 7470
3559 7494
3559 7611
3559 7619
3559 8150
3559 8367
3559 8432
3559 8446
3559 8941
3559 9173
3559 9654
3559 9663
3560 4595
3560 4902
3560 5645
3560 5780
3560 6049
3560 6399
3560 6421
3560 6505
3560 6828
3560 7207
3560 7928
3560 8090
3560 8303
3560 8503
3560 9008
3560 9039
3560 9047
3560 9092
3560 9757
3561 4916
3561 5068
3561 6536
3561 7033
3561 7989
3561 8120
3561 8333
3561 8812
3561 8898
3562 3811
3562 4012
3562 4801
3562 4895
3562 5240
3562 5784
3562 5935
3562 6345
3562 6359
3562 7047
3562 7452
3562 7962
3562 8926
3562 8936
3562 9645
3563 4939
3563 5201
3563 5801
3563 6298
3563 7143
3563 9553
3563 9818
3564 4085
3564 6653
3564 6985
3564 7101
3564 8383
3565 4212
3565 4611
3565 4679
3565 4748
3565 4872
3565 5116
3565 5272
3565 5510
3565 5641
3565 5858
3565 6226
3565 6387
3565 6403
3565 6406
3565 6617
3565 7144
3565 7189
3565 7688
3565 8124
3565 8711
3565 9001
3565 9148
3565 9401
3565 9596
3565 9700
3565 9923
3566 5707
3566 6056
3566 8061
3566 8828
3567 6079
3567 6319
3567 6571
3567 6693
3567 7149
3567 8071
3567 8521
3568 3599
3568 4848
3568 5286
3568 6334
3568 6951
3568 7021
3568 7120
3568 8049
3568 8244
3568 9257
3568 9302
3568 9338
3568 9736
3568 9886
3569 4307
3569 4382
3569 4529
3569 4618
3569 5145
3569 6232
3569 6384
3569 6498
3569 7858
3569 8102
3569 9902
3570 3612
3570 3637
3570 3789
3570 4346
3570 4788
3570 4881
3570 4949
3570 5123
3570 5230
3570 5553
3570 5687
3570 5743
3570 6239
3570 6824
3570 7162
3570 7382
3570 7581
3570 7651
3570 8027
3570 8111
3570 8488
3570 8595
3570 8606
3570 8963
3570 9245
3570 9725
3570 9799
3570 9919
3570 9995
3571 3588
3571 3643
3571 4323
3571 4359
3571 4364
3571 4606
3571 4783
3571 4890
3571 5040
3571 5049
3571 5257
3571 5906
3571 5966
3571 6471
3571 6695
3571 7034
3571 8479
3571 8638
3571 9370
3571 9739
3572 3580
3572 5041
3572 5310
3572 5546
3572 6083
3572 8185
3572 8210
3572 9467
3572 9778
3573 3707
3573 3952
3573 4528
3573 4532
3573 5246
3573 5803
3573 5838
3573 6325
3573 7154
3573 7455
3573 8112
3573 9464
3574 4195
3574 4452
3574 4653
3574 4658
3574 4705
3574 4948
3574 5021
3574 5035
3574 5790
3574 6029
3574 6545
3574 6941
3574 7207
3574 8423
3574 8516
3574 9151
3574 9256
3574 9383
3575 4230
3575 4729
3575 5485
3575 5606
3575 5616
3575 7831
3575 8253
3575 8316
3575 9931
3576 4190
3576 4803
3576 4968
3576 5998
3576 6483
3576 6930
3576 8461
3576 9463
3577 4434
3577 5517
3577 5797
3577 6769
3577 7006
3577 7406
3577 7499
3577 7833
3577 7851
3577 7893
3577 9139
3577 9398
3577 9456
3577 9482
3577 9914
3578 3876
3578 4789
3578 6304
3578 6570
3578 7524
3578 7752
3578 7882
3578 8295
3578 8307
3578 8839
3578 9111
3579 4118
3579 4564
3579 6010
3579 9278
3580 5444
3580 7948
3580 8086
3580 8571
3580 9467
3580 9682
3581 4394
3581 4876
3581 5524
3581 5850
3581 5901
3581 6040
3581 6196
3581 6616
3581 6664
3581 6783
3581 7207
3581 7642
3581 8199
3581 8233
3581 8721
3581 9334
3581 9356
3581 9402
3581 9424
3581 9873
3581 9964
3581 9990
3582 4765
3582 5404
3582 5897
3582 6216
3582 6253
3582 7045
3582 7993
3582 9042
3582 9085
3582 9620
3583 4005
3583 4135
3583 4164
3583 5187
3583 6152
3583 6848
3583 7081
3583 7261
3583 7712
3583 8008
3583 8375
3583 8717
3583 9325
3583 9928
3584 3847
3584 4222
3584 4400
3584 4827
3584 5048
3584 5343
3584 5741
3584 5819
3584 5945
3584 6148
3584 6221
3584 6697
3584 7228
3584 7497
3584 7843
3584 8095
3584 8177
3584 8250
3584 8351
3584 8940
3584 8989
3584 9070
3584 9841
3585 3606
3585 3723
3585 4227
3585 4228
3585 4513
3585 4525
3585 4614
3585 4778
3585 4890
3585 4917
3585 5000
3585 5552
3585 5628
3585 5773
3585 6105
3585 6297
3585 6753
3585 6873
3585 7007
3585 7409
3585 7587
3585 9073
3585 9150
3585 9380
3585 9717
3585 9774
3586 3695
3586 3862
3586 4009
3586 4513
3586 4706
3586 4840
3586 5146
3586 5336
3586 5851
3586 6059
3586 6425
3586 6874
3586 7030
3586 7267
3586 8871
3586 8903
3587 4271
3587 4550
3587 5567
3587 6038
3587 7954
3587 8220
3587 8225
3587 8836
3588 4073
3588 4103
3588 4267
3588 4890
3588 5040
3588 5147
3588 6337
3588 6343
3588 6503
3588 6623
3588 6632
3588 6987
3588 7248
3588 7859
3588 7891
3588 8479
3588 8512
3588 8638
3588 8673
3588 9276
3588 9739
3588 9781
3588 9870
3588 9937
3589 3681
3589 3932
3589 4602
3589 4618
3589 4819
3589 4827
3589 5003
3589 5349
3589 5531
3589 5761
3589 6035
3589 6264
3589 6308
3589 6459
3589 6489
3589 6834
3589 7361
3589 7449
3589 7549
3589 7620
3589 7623
3589 7822
3589 8192
3589 8568
3589 8903
3589 9105
3589 9498
3590 3599
3590 3663
3590 3722
3590 3920
3590 4398
3590 4433
3590 4658
3590 5675
3590 6155
3590 6727
3590 6735
3590 7328
3590 7410
3590 7849
3590 8191
3590 9630
3591 4030
3591 4847
3591 5331
3591 5668
3591 7003
3591 7178
3591 7915
3591 8668
3591 8850
3591 9214
3591 9890
3592 3636
3592 3660
3592 3790
3592 5122
3592 5969
3592 6094
3592 6997
3592 7142
3592 7604
3592 7858
3592 8481
3593 3774
3593 3891
3593 4431
3593 6923
3593 7406
3593 7463
3593 7684
3593 8899
3593 9187
3593 9692
3593 9765
3593 9835
3594 3630
3594 4207
3594 5743
3594 5764
3594 5821
3594 5903
3594 6884
3594 7693
3594 7774
3594 8776
3594 8798
3594 8849
3594 9923
3595 3958
3595 4062
3595 4557
3595 5015
3595 6323
3595 6501
3595 6730
3595 7224
3595 7571
3595 8250
3595 8272
3595 9646
3595 9721
3596 3810
3596 3820
3596 3987
3596 4670
3596 4837
3596 5285
3596 5942
3596 6585
3596 6762
3596 6926
3596 7847
3596 8118
3596 8364
3596 8524
3596 9940
3597 3631
3597 3761
3597 4166
3597 4195
3597 4308
3597 4648
3597 5093
3597 7239
3597 7334
3597 7771
3597 7913
3597 8154
3597 8241
3597 8293
3597 8896
3597 9065
3597 9129
3597 9487
3597 9939
3598 4237
3598 4301
3598 4821
3598 5497
3598 6077
3598 6139
3598 6248
3598 6677
3598 6937
3598 8067
3598 8396
3598 8464
3598 8797
3598 8870
3598 8955
3598 9380
3598 9555
3598 9826
3599 3939
3599 3996
3599 4266
3599 4343
3599 4350
3599 4409
3599 4618
3599 4972
3599 5370
3599 5950
3599 6038
3599 6180
3599 6561
3599 7096
3599 7292
3599 7295
3599 7434
3599 7525
3599 7698
3599 8358
3599 8437
3600 4241
3600 4329
3600 4340
3600 4545
3600 4635
3600 4652
3600 6139
3600 6222
3600 8208
3600 8996
3600 9152
3601 5938
3601 6115
3601 7160
3601 8243
3601 8304
3601 8527
3601 8556
3601 8593
3601 8670
3601 9253
3601 9583
3602 5538
3602 5608
3602 5691
3602 5782
3602 5962
3602 6355
3602 6400
3602 7965
3602 9330
3602 9592
3602 9623
3602 9776
3603 3712
3603 4560
3603 4629
3603 5472
3603 8034
3603 8441
3603 8517
3603 9649
3604 3715
3604 3786
3604 4223
3604 4502
3604 5824
3604 6545
3604 7431
3604 9420
3604 9590
3605 3736
3605 3790
3605 4652
3605 5113
3605 5158
3605 5245
3605 5826
3605 8144
3605 8388
3605 9042
3605 9189
3605 9598
3605 9732
3606 4282
3606 4426
3606 4696
3606 5361
3606 5705
3606 5802
3606 5838
3606 6135
3606 6172
3606 6443
3606 6661
3606 6788
3606 6938
3606 6981
3606 7054
3606 7073
3606 7224
3606 7753
3606 7823
3606 8863
3606 9024
3606 9143
3606 9666
3606 9765
3606 9978
3607 3884
3607 6163
3607 6443
3607 6788
3607 9492
3607 9985
3608 3865
3608 4033
3608 4472
3608 4823
3608 5390
3608 5907
3608 6068
3608 6129
3608 6401
3608 6533
3608 6844
3608 7055
3608 7273
3608 7318
3608 7397
3608 7580
3608 7694
3608 8313
3608 8337
3608 8435
3608 8663
3608 9135
3608 9199
3608 9667
3608 9717
3609 4308
3609 4383
3609 4413
3609 4795
3609 4959
3609 5063
3609 5224
3609 5980
3609 7266
3609 8631
3609 8800
3609 9277
3609 9414
3609 9646
3609 9656
3609 9991
3610 4146
3610 4156
3610 4157
3610 4229
3610 4384
3610 6930
3610 7004
3610 7114
3610 7751
3610 7765
3610 8089
3610 8270
3610 8366
3611 3757
3611 4296
3611 4531
3611 5264
3611 6481
3611 6545
3611 7832
3611 9983
3612 3906
3612 4791
3612 5332
3612 6135
3612 6916
3612 9721
3613 4200
3613 4909
3613 4926
3613 5482
3613 5996
3613 7168
3613 7297
3613 9159
3613 9354
3614 3924
3614 4251
3614 5391
3614 5767
3614 6751
3614 6756
3614 6964
3614 7204
3614 7553
3614 7597
3614 7939
3614 8818
3615 4237
3615 4958
3615 5895
3615 5935
3615 6382
3615 7084
3615 8071
3615 8133
3615 8148
3615 9060
3615 9579
3615 9934
3616 4213
3616 4917
3616 5303
3616 5610
3616 5706
3616 5781
3616 7004
3616 7112
3616 7199
3616 8280
3616 8346
3616 8481
3616 9886
3617 4128
3617 4184
3617 4312
3617 5369
3617 5687
3617 5999
3617 9695
3618 3693
3618 5207
3618 6285
3618 6289
3618 7668
3618 8007
3618 8073
3618 9195
3618 9814
3619 3759
3619 4485
3619 4519
3619 4600
3619 4726
3619 4821
3619 5558
3619 5697
3619 5873
3619 6130
3619 7451
3619 7539
3619 8027
3619 8780
3619 8862
3619 9047
3619 9450
3620 3685
3620 3817
3620 5550
3620 6037
3620 6495
3620 6822
3620 8382
3620 8553
3620 9128
3620 9267
3620 9303
3620 9982
3621 3626
3621 3683
3621 4070
3621 4273
3621 4762
3621 4815
3621 5212
3621 5827
3621 6803
3621 8435
3621 8742
3621 8784
3621 9006
3621 9056
3621 9287
3621 9969
3622 4400
3622 5043
3622 5310
3622 5329
3622 6132
3622 6653
3622 6689
3622 6712
3622 6724
3622 6894
3622 7229
3622 7957
3622 8210
3622 8376
3622 8957
3622 9117
3622 9330
3622 9398
3623 3932
3623 3934
3623 4502
3623 5321
3623 6148
3623 8064
3623 9308
3623 9449
3624 6426
3624 8765
3624 8958
3624 9092
3624 9100
3624 9269
3625 4148
3625 4987
3625 7832
3625 9748
3626 4108
3626 4301
3626 4715
3626 5067
3626 5212
3626 5395
3626 6988
3626 7454
3626 7576
3626 8236
3626 8481
3626 8742
3626 9656
3626 9775
3626 9969
3627 3836
3627 5890
3627 7371
3627 7401
3627 8896
3627 8946
3627 8987
3627 9467
3627 9555
3627 9899
3628 4098
3628 4239
3628 5253
3628 5684
3628 6700
3628 6863
3628 6919
3628 6941
3628 7016
3628 7292
3628 7361
3628 7539
3628 7939
3628 8327
3628 9122
3628 9861
3629 4721
3629 4982
3629 5362
3629 7689
3629 8375
3630 3756
3630 5985
3630 6244
3630 7385
3631 4166
3631 4258
3631 4308
3631 5570
3631 5969
3631 7701
3631 8293
3632 3852
3632 3947
3632 4469
3632 5440
3632 5568
3632 5724
3632 6047
3632 6523
3632 6657
3632 7638
3632 7706
3632 8215
3632 9076
3632 9229
3632 9318
3632 9468
3632 9668
3633 3876
3633 4356
3633 4919
3633 5110
3633 5455
3633 5600
3633 5850
3633 6006
3633 6414
3633 6668
3633 7112
3633 7746
3633 8226
3633 9459
3634 4480
3634 4921
3634 5322
3634 5574
3634 7356
3634 7653
3634 9031
3635 3793
3635 3937
3635 4894
3635 5057
3635 5899
3635 6404
3635 7085
3635 7223
3635 7304
3635 7510
3635 9921
3636 3660
3636 5346
3636 6016
3636 6061
3636 6094
3636 6120
3636 6352
3636 6485
3636 6985
3636 6997
3636 7047
3636 7106
3636 7291
3636 7485
3636 8070
3636 8467
3636 9183
3636 9316
3636 9923
3637 3884
3637 4470
3637 5119
3637 5428
3637 6248
3637 6826
3637 7075
3637 7341
3637 7601
3637 7736
3637 9451
3637 9690
3637 9963
3638 3735
3638 5322
3638 5406
3638 6015
3638 7347
3638 7895
3638 7913
3638 8425
3638 8487
3638 9099
3639 3730
3639 4312
3639 4344
3639 4496
3639 4560
3639 4704
3639 5236
3639 5651
3639 6226
3639 6362
3639 7080
3639 7514
3639 7758
3639 8117
3639 8149
3639 8557
3639 8726
3639 8770
3639 8797
3639 9136
3639 9424
3639 9637
3639 9973
3640 4147
3640 4356
3640 4747
3640 5027
3640 5219
3640 5318
3640 5962
3640 6042
3640 6196
3640 7515
3640 8778
3640 8922
3640 9176
3640 9267
3640 9478
3641 4329
3641 4439
3641 4589
3641 4771
3641 5608
3641 5915
3641 6169
3641 6266
3641 6434
3641 7037
3641 7385
3641 7701
3641 7723
3641 7969
3641 8126
3641 8984
3641 9017
3641 9191
3641 9636
3641 9902
3641 9983
3642 4041
3642 4954
3642 6305
3642 6332
3642 6489
3642 6656
3642 7222
3642 7833
3642 8568
3642 9889
3643 3959
3643 4042
3643 4327
3643 4358
3643 5007
3643 5944
3643 8351
3643 9246
3643 9801
3644 4523
3644 4776
3644 5323
3644 5359
3644 5732
3644 5795
3644 7429
3644 7864
3644 8307
3644 9117
3645 3763
3645 3923
3645 5792
3645 5912
3645 6181
3645 7059
3645 7631
3645 9910
3645 9928
3645 9978
3646 4126
3646 4624
3646 4642
3646 5116
3646 5676
3646 5737
3646 5766
3646 6612
3646 6798
3646 6824
3646 7410
3646 7741
3646 8723
3646 9061
3646 9811
3646 9824
3647 3925
3647 5073
3647 5959
3647 6283
3647 6476
3647 8516
3647 8606
3648 3846
3648 4719
3648 5092
3648 5404
3648 5897
3648 6339
3648 6462
3648 6966
3648 7077
3648 7437
3648 7721
3648 8058
3648 8167
3648 8891
3648 9085
3648 9179
3648 9620
3649 3699
3649 3734
3649 3855
3649 4303
3649 4519
3649 5404
3649 5989
3649 7198
3649 7292
3649 7575
3649 7821
3649 7828
3649 7877
3649 8006
3649 8165
3649 8213
3649 8223
3649 8234
3649 8314
3649 9170
3649 9188
3649 9209
3649 9537
3649 9733
3650 5811
3650 6226
3650 6409
3650 6947
3650 7035
3650 7251
3650 7791
3650 8992
3650 9817
3651 3821
3651 3942
3651 4187
3651 4797
3651 5237
3651 5250
3651 5348
3651 5445
3651 5797
3651 6476
3651 6599
3651 6655
3651 6871
3651 7057
3651 7167
3651 7234
3651 7712
3651 7782
3651 7794
3651 7922
3651 7970
3651 8284
3651 8416
3651 8462
3651 8614
3651 9180
3651 9287
3651 9595
3651 9886
3652 3734
3652 3930
3652 4031
3652 4604
3652 4627
3652 4684
3652 5463
3652 5635
3652 5815
3652 5856
3652 6198
3652 6230
3652 6743
3652 7027
3652 7130
3652 7374
3652 8194
3652 8363
3652 8840
3652 9128
3652 9195
3652 9300
3652 9878
3652 9906
3653 4442
3653 5182
3653 5200
3653 5727
3653 6164
3653 6296
3653 7918
3653 9232
3654 3726
3654 5230
3654 5318
3654 5722
3654 6559
3654 6980
3654 7069
3654 7444
3654 8648
3654 8888
3654 8942
3654 9383
3654 9413
3654 9723
3655 5982
3655 6312
3655 7871
3655 8359
3655 8876
3655 9218
3655 9640
3656 4302
3656 4689
3656 5269
3656 5372
3656 5608
3656 5782
3656 6211
3656 6466
3656 6656
3656 7002
3656 9623
3656 9720
3657 3727
3657 4166
3657 5954
3657 5986
3657 6924
3657 6994
3657 8384
3657 9170
3658 3891
3658 4134
3658 4673
3658 4779
3658 5105
3658 5112
3658 5936
3658 6351
3658 7831
3658 8619
3658 9284
3658 9423
3658 9888
3658 9906
3658 9954
3659 3727
3659 3853
3659 4867
3659 5028
3659 5338
3659 5882
3659 5951
3659 6027
3659 6579
3659 6976
3659 7145
3659 7280
3659 7562
3659 7571
3659 7676
3659 8292
3659 8956
3659 9402
3659 9666
3659 9699
3659 9874
3660 3883
3660 3928
3660 4301
3660 4903
3660 6061
3660 6320
3660 6997
3660 7106
3660 7289
3660 8124
3660 8407
3660 9584
3660 9729
3661 3727
3661 3737
3661 3825
3661 3858
3661 4004
3661 4912
3661 5703
3661 5721
3661 5764
3661 6104
3661 6894
3661 7011
3661 7159
3661 7697
3661 7755
3661 8079
3661 8279
3661 8391
3661 8763
3661 9094
3661 9758
3662 3879
3662 7754
3662 8469
3662 8903
3662 9005
3662 9384
3662 9469
3662 9604
3662 9784
3662 9798
3663 4821
3663 5299
3663 7764
3663 9857
3663 9863
3663 9908
3664 4486
3664 4666
3664 4716
3664 5452
3664 6676
3664 6757
3664 7191
3664 7973
3664 8307
3664 8368
3664 8949
3664 9215
3664 9247
3665 3962
3665 4243
3665 4281
3665 4549
3665 4842
3665 4958
3665 5211
3665 6913
3665 7889
3665 8164
3665 8294
3665 8514
3665 8849
3665 9615
3666 4386
3666 5054
3666 5267
3666 5942
3666 6149
3666 6364
3666 8564
3666 8603
3666 8901
3666 9202
3666 9253
3666 9309
3666 9345
3667 4284
3667 4582
3667 4652
3667 4957
3667 5968
3667 6865
3667 7552
3667 7565
3667 8114
3667 8267
3667 8303
3667 9125
3667 9328
3667 9977
3668 3718
3668 4042
3668 4135
3668 4446
3668 4479
3668 4917
3668 4938
3668 5347
3668 5507
3668 5855
3668 6010
3668 6152
3668 6154
3668 6328
3668 6344
3668 6422
3668 6586
3668 6796
3668 6832
3668 7603
3668 7620
3668 8076
3668 8355
3668 8606
3668 8835
3668 8869
3668 9020
3668 9454
3668 9600
3668 9604
3668 9951
3669 3966
3669 4296
3669 4741
3669 5321
3669 6423
3669 9153
3669 9434
3670 4657
3670 4926
3670 5810
3670 5918
3670 7610
3670 8513
3670 8912
3670 9193
3670 9293
3670 9432
3671 3802
3671 4691
3671 5891
3671 6106
3671 6510
3671 6559
3671 7296
3671 7401
3671 7409
3671 7774
3671 7791
3671 8312
3671 9208
3672 4268
3672 4778
3672 5407
3672 5476
3672 5653
3672 6822
3672 6994
3672 7928
3672 8455
3672 8656
3672 9168
3672 9637
3672 9652
3672 9809
3673 3687
3673 4577
3673 6118
3673 6280
3673 6379
3673 6423
3673 6852
3673 8247
3673 8670
3674 4691
3674 5490
3674 5742
3674 5945
3674 6568
3674 6806
3674 7358
3674 7715
3674 8511
3674 9236
3674 9562
3674 9755
3674 9948
3675 3741
3675 4559
3675 5109
3675 6301
3675 6516
3675 7650
3675 8172
3675 9432
3676 4212
3676 4467
3676 7473
3676 8262
3676 8375
3677 4321
3677 6182
3677 6214
3677 6274
3677 6852
3677 7062
3677 8638
3677 8724
3677 9665
3678 3875
3678 4204
3678 4387
3678 4794
3678 5488
3678 5513
3678 5770
3678 6988
3678 7849
3678 8741
3678 9152
3678 9378
3678 9439
3678 9902
3679 4734
3679 4933
3679 5636
3679 6243
3679 6545
3679 9546
3679 9766
3679 9895
3680 4448
3680 5396
3680 5528
3680 5601
3680 6842
3680 7366
3680 8058
3680 8758
3680 8999
3680 9538
3680 9927
3681 4827
3681 5349
3681 6478
3681 6680
3681 6820
3681 8754
3681 8881
3681 9498
3682 3790
3682 3970
3682 4021
3682 4381
3682 4683
3682 4856
3682 5210
3682 5325
3682 5659
3682 6632
3682 6790
3682 7240
3682 7266
3682 7721
3682 8127
3682 8434
3682 8515
3682 8621
3683 5048
3683 5827
3683 6987
3683 7111
3683 8742
3683 8963
3683 9456
3683 9620
3683 9969
3684 4013
3684 4174
3684 4308
3684 5037
3684 6525
3684 6726
3684 7073
3684 7542
3684 7554
3684 8218
3684 8319
3684 8698
3684 9528
3685 6242
3685 7419
3685 8639
3685 8867
3685 9851
3686 4265
3686 5186
3686 5832
3686 6369
3686 6655
3686 6880
3686 7022
3686 7629
3686 8150
3686 8418
3686 9263
3687 3780
3687 3844
3687 4188
3687 4221
3687 4541
3687 4735
3687 4833
3687 4834
3687 5246
3687 5341
3687 5440
3687 5841
3687 5984
3687 6251
3687 6416
3687 6927
3687 6971
3687 8037
3687 8217
3687 8308
3687 8540
3687 9846
3688 4569
3688 4611
3688 4690
3688 5908
3688 5950
3688 6618
3688 7768
3688 8229
3688 8435
3688 8439
3688 8987
3688 9307
3688 9455
3689 4761
3689 5224
3689 5512
3689 5758
3689 6792
3689 8345
3689 9062
3689 9769
3690 4204
3690 6275
3690 6430
3690 6438
3690 6816
3690 6880
3690 6979
3690 7069
3690 7236
3690 7824
3690 8316
3691 3720
3691 4976
3691 5962
3691 6546
3691 7142
3691 7399
3691 7766
3691 7795
3691 8066
3691 9575
3692 4127
3692 4472
3692 5438
3692 6198
3692 6739
3692 7750
3692 7912
3692 8949
3692 9119
3692 9443
3692 9508
3693 4440
3693 4499
3693 4955
3693 5543
3693 5837
3693 7482
3693 7596
3693 8609
3693 8974
3693 9126
3693 9674
3693 9779
3694 5732
3694 6275
3694 6957
3694 8830
3694 9190
3695 3698
3695 3726
3695 4262
3695 6451
3695 6471
3695 6804
3695 7694
3695 7727
3695 8109
3695 9354
3696 4315
3696 5346
3696 5745
3696 8145
3696 8160
3696 8489
3696 8931
3696 9607
3696 9776
3696 9829
3696 9882
3697 4824
3697 6085
3697 7294
3697 7324
3697 8137
3697 8355
3697 8837
3697 9792
3698 4591
3698 5117
3698 5203
3698 5510
3698 6378
3698 6471
3698 8698
3698 8811
3698 9336
3699 4684
3699 7652
3699 8223
3699 9188
3700 4333
3700 4873
3700 5302
3700 5315
3700 6158
3700 7334
3700 7352
3700 8480
3700 8806
3701 4733
3701 7297
3701 9139
3701 9841
3702 4469
3702 4703
3702 5007
3702 5169
3702 6782
3702 7252
3702 8839
3702 9190
3703 5227
3703 5651
3703 6827
3703 6954
3703 7679
3704 3781
3704 5379
3704 6042
3704 6044
3704 6839
3704 7902
3704 8129
3704 9148
3704 9769
3705 3793
3705 4433
3705 5392
3705 5813
3705 6635
3705 7052
3705 7844
3705 8141
3705 8455
3705 8926
3706 3872
3706 4023
3706 4735
3706 5453
3706 5625
3706 6152
3706 7200
3706 7447
3706 7825
3706 8521
3706 8938
3706 9715
3707 3994
3707 4427
3707 4509
3707 4532
3707 5669
3707 5838
3707 6475
3707 6784
3707 7037
3707 7154
3707 7722
3707 7774
3707 8018
3707 8289
3707 8747
3707 8818
3707 9068
3708 4383
3708 5699
3708 6276
3708 7249
3708 7409
3708 7506
3708 7892
3708 8031
3708 8294
3708 8719
3708 8851
3708 9470
3709 3847
3709 3991
3709 4889
3709 5486
3709 6361
3709 6373
3709 7358
3709 7984
3709 8073
3709 8091
3709 8099
3709 8196
3709 8224
3709 8388
3709 8511
3709 8532
3709 8657
3709 8749
3709 8814
3709 8833
3709 9298
3709 9453
3709 9537
3709 9791
3709 9796
3709 9827
3710 4049
3710 4135
3710 4275
3710 4687
3710 5121
3710 5270
3710 5393
3710 5439
3710 5556
3710 5677
3710 5954
3710 6484
3710 6745
3710 6764
3710 7151
3710 7902
3710 8783
3710 9869
3711 4036
3711 4472
3711 4528
3711 4665
3711 4860
3711 4862
3711 5193
3711 5346
3711 5413
3711 6612
3711 6878
3711 7427
3711 7461
3711 7566
3711 8003
3711 8087
3711 8255
3711 8426
3711 8781
3711 9055
3711 9376
3711 9821
3711 9952
3711 9962
3711 9971
3712 4795
3712 4887
3712 5436
3712 5542
3712 5711
3712 5851
3712 6102
3712 6324
3712 6380
3712 6825
3712 7160
3712 7311
3712 8122
3712 8163
3712 8318
3712 8707
3712 9274
3713 4041
3713 4968
3713 5207
3713 5456
3713 6145
3713 6457
3713 6860
3713 6922
3713 7293
3713 7949
3713 8494
3713 8653
3713 8747
3713 8913
3713 9353
3713 9965
3714 3922
3714 4724
3714 4901
3714 6304
3714 8023
3714 8777
3714 9070
3715 3783
3715 3966
3715 4383
3715 4914
3715 5268
3715 5355
3715 5424
3715 5505
3715 5615
3715 5939
3715 6007
3715 6367
3715 7197
3715 7916
3715 8696
3715 9190
3715 9386
3715 9622
3715 9716
3715 9825
3716 3928
3716 4476
3716 5212
3716 5274
3716 6085
3716 6289
3716 6483
3716 7967
3716 9057
3716 9088
3716 9552
3717 4177
3717 4496
3717 5387
3717 5436
3717 6259
3717 6267
3717 7278
3717 8917
3718 3829
3718 4169
3718 4409
3718 4644
3718 5162
3718 5199
3718 5209
3718 5568
3718 5584
3718 6240
3718 6305
3718 6439
3718 8117
3718 8320
3718 8472
3718 9524
3718 9835
3718 9890
3719 4047
3719 4323
3719 4712
3719 4811
3719 4894
3719 4997
3719 5307
3719 5310
3719 6398
3719 7556
3719 9267
3720 3727
3720 3925
3720 5436
3720 7960
3720 8106
3720 8424
3720 8609
3720 9031
3720 9909
3721 3801
3721 3902
3721 4620
3721 5174
3721 5433
3721 5621
3721 5708
3721 5755
3721 6038
3721 6123
3721 6213
3721 6241
3721 6245
3721 6399
3721 6727
3721 6758
3721 7108
3721 7152
3721 7219
3721 7473
3721 7784
3721 8115
3721 8418
3721 8972
3721 9235
3721 9643
3722 4397
3722 4433
3722 4739
3722 4793
3722 4955
3722 4997
3722 5653
3722 5681
3722 6085
3722 6201
3722 6496
3722 6616
3722 6735
3722 6977
3722 6997
3722 7030
3722 7167
3722 7752
3722 8357
3722 8907
3722 8988
3722 8990
3722 9038
3722 9120
3722 9419
3722 9920
3723 3968
3723 4193
3723 4273
3723 5241
3723 5540
3723 6490
3723 6762
3723 7598
3723 8011
3723 8757
3723 9898
3724 4943
3724 5023
3724 5394
3724 5617
3724 5730
3724 6813
3724 7299
3724 7774
3724 8868
3724 9234
3725 4188
3725 6549
3725 6821
3725 8354
3726 3999
3726 4227
3726 4252
3726 4440
3726 4524
3726 4607
3726 4886
3726 5146
3726 5621
3726 5895
3726 6848
3726 7216
3726 7442
3726 8256
3726 8284
3726 8362
3726 8928
3726 9030
3726 9050
3726 9861
3727 3856
3727 3925
3727 4190
3727 4394
3727 5587
3727 5657
3727 5846
3727 5874
3727 5979
3727 7167
3727 7719
3727 8185
3727 8807
3727 9576
3727 9756
3728 3996
3728 5205
3728 5493
3728 5667
3728 7556
3728 7606
3728 7836
3728 9436
3728 9627
3728 9933
3729 4566
3729 4672
3729 4749
3729 5692
3729 6327
3729 7424
3729 8019
3729 8372
3729 8632
3729 8689
3729 9354
3729 9572
3729 9882
3730 4120
3730 5263
3730 5456
3730 5918
3730 6673
3730 7673
3730 7820
3730 8354
3731 3797
3731 4148
3731 4794
3731 4971
3731 5315
3731 5738
3731 7016
3731 8316
3731 9330
3731 9403
3732 3981
3732 4587
3732 4630
3732 5516
3732 5702
3732 6152
3732 6160
3732 6251
3732 7122
3732 7492
3732 7823
3732 8265
3732 8303
3732 8960
3732 9069
3732 9244
3732 9427
3732 9693
3732 9998
3733 4616
3733 4733
3733 5144
3733 5555
3733 5951
3733 7328
3733 8233
3733 9431
3734 3963
3734 4217
3734 4244
3734 5789
3734 5886
3734 6111
3734 6400
3734 6987
3734 7102
3734 8937
3734 9424
3734 9509
3735 3767
3735 3994
3735 4296
3735 4483
3735 4548
3735 4864
3735 5083
3735 5127
3735 5169
3735 5174
3735 5581
3735 5864
3735 5969
3735 6015
3735 6045
3735 6055
3735 6279
3735 6283
3735 6446
3735 6450
3735 6518
3735 6593
3735 6825
3735 6943
3735 7498
3735 7593
3735 7782
3735 7895
3735 7914
3735 8347
3735 9099
3735 9706
3735 9978
3736 6660
3736 7341
3736 8388
3737 3870
3737 4055
3737 4429
3737 4461
3737 4513
3737 4639
3737 4667
3737 4753
3737 5395
3737 6032
3737 6284
3737 6726
3737 6802
3737 6971
3737 7282
3737 7337
3737 7473
3737 7642
3737 7704
3737 7837
3737 8144
3737 8195
3737 8203
3737 8819
3737 9009
3737 9449
3737 9815
3738 3938
3738 4442
3738 4686
3738 5396
3738 5402
3738 5433
3738 6100
3738 6208
3738 6324
3738 6405
3738 6610
3738 7049
3738 7123
3738 8465
3738 9015
3738 9977
3739 4197
3739 5077
3739 5364
3739 5933
3739 5949
3739 5993
3739 6228
3739 6249
3739 6456
3739 7601
3739 8058
3739 8116
3739 8361
3740 3957
3740 4618
3740 6440
3740 6804
3740 6958
3741 4559
3741 4745
3741 5018
3741 5840
3741 6085
3741 6174
3741 6418
3741 7060
3741 7410
3741 7525
3741 7555
3741 8579
3741 8717
3742 3881
3742 5405
3742 6045
3742 6265
3742 6615
3742 6639
3742 6718
3742 7071
3742 7467
3742 8189
3742 8475
3742 8813
3743 3752
3743 4246
3743 5776
3743 5783
3743 6124
3743 6710
3743 6743
3743 6758
3743 6781
3743 6832
3743 7092
3743 7318
3743 7449
3743 7536
3743 7700
3743 8075
3743 8114
3743 8399
3743 8522
3743 8792
3743 9164
3744 5208
3744 5861
3744 8604
3744 9893
3745 5404
3745 5579
3745 5836
3745 8706
3745 8824
3745 9378
3745 9408
3746 4268
3746 4304
3746 4372
3746 6251
3746 6387
3746 6388
3746 6631
3746 7273
3746 7604
3746 9396
3746 9752
3747 4306
3747 4938
3747 4974
3747 5467
3747 5798
3747 6933
3747 7217
3747 7732
3747 7970
3747 8615
3747 9484
3748 4698
3748 5045
3748 5719
3748 5971
3748 6322
3748 6516
3748 6603
3748 6696
3748 6835
3748 7231
3748 7361
3748 7845
3748 8784
3748 8898
3748 8907
3748 8980
3748 9326
3748 9381
3748 9648
3748 9697
3748 9830
3748 9920
3749 4361
3749 4393
3749 4787
3749 4863
3749 5354
3749 5525
3749 6007
3749 6289
3749 6376
3749 6496
3749 6656
3749 7008
3749 8250
3749 9544
3750 4658
3750 4807
3750 4826
3750 4832
3750 5729
3750 6113
3750 7166
3750 7743
3750 7813
3750 8441
3750 8628
3750 9628
3751 3772
3751 4316
3751 4407
3751 4613
3751 5039
3751 5287
3751 5521
3751 5549
3751 5608
3751 6238
3751 6490
3751 6683
3751 7177
3751 7518
3751 8017
3751 8168
3751 8831
3751 8879
3751 9109
3751 9317
3751 9700
3751 9813
3751 9839
3751 9847
3752 5379
3752 6030
3752 6143
3752 6444
3752 6589
3752 6957
3752 6962
3752 7125
3752 7208
3752 7412
3752 8019
3752 9861
3753 3771
3753 4109
3753 4583
3753 5077
3753 5200
3753 8478
3753 9019
3753 9978
3754 3947
3754 4345
3754 4812
3754 6232
3754 6642
3754 7136
3754 7181
3754 7969
3754 8869
3754 9267
3754 9876
3755 4461
3755 4607
3755 4867
3755 5606
3755 5730
3755 6189
3755 6415
3755 6697
3755 6995
3755 7554
3755 7828
3755 8214
3756 5628
3756 5985
3756 6787
3756 7738
3756 9117
3756 9182
3756 9879
3757 4098
3757 4754
3757 5805
3757 5932
3757 5935
3757 7451
3757 8057
3757 8773
3757 8776
3757 9036
3757 9902
3758 3977
3758 4437
3758 4917
3758 4992
3758 5316
3758 7027
3758 7991
3758 9994
3759 3912
3759 3923
3759 4293
3759 5055
3759 5301
3759 6827
3759 6941
3759 7404
3759 7953
3759 8490
3759 8742
3760 4402
3760 4654
3760 4781
3760 4964
3760 5087
3760 5294
3760 6653
3760 6846
3760 7994
3760 9204
3761 5076
3761 6364
3761 6777
3761 7846
3761 8126
3761 8167
3761 8616
3761 8695
3761 8771
3761 9014
3761 9180
3761 9541
3762 5886
3762 6232
3762 8269
3762 8596
3762 8924
3762 9517
3763 5486
3763 7297
3763 7394
3763 7986
3764 4013
3764 4137
3764 4700
3764 5079
3764 6068
3764 6241
3764 6352
3764 6582
3764 6678
3764 8808
3764 9328
3764 9580
3764 9731
3764 9755
3765 5096
3765 5642
3765 7494
3765 9841
3766 4035
3766 4109
3766 4191
3766 4976
3766 6989
3766 7200
3766 7714
3766 7813
3766 8098
3766 8130
3766 9586
3767 4029
3767 4240
3767 4327
3767 5017
3767 5294
3767 6781
3767 7151
3767 7276
3767 7621
3767 7863
3767 8365
3767 9005
3767 9203
3767 9413
3767 9879
3768 5949
3768 6190
3768 6565
3768 6576
3768 6668
3768 7436
3768 8294
3768 9259
3768 9262
3768 9877
3769 4946
3769 5361
3769 6569
3769 6689
3769 6837
3769 8191
3769 9111
3770 4072
3770 4429
3770 4704
3770 4841
3770 5069
3770 7329
3770 9407
3771 4008
3771 5620
3771 5700
3771 6743
3771 6932
3771 7954
3771 8897
3771 9751
3771 9789
3772 4014
3772 4082
3772 4599
3772 5160
3772 5976
3772 6567
3772 8325
3772 8957
3772 9663
3773 3928
3773 5416
3773 6905
3773 7066
3773 8616
3773 8649
3773 9092
3773 9155
3773 9198
3774 5766
3774 5935
3774 6862
3774 7287
3774 7932
3774 9621
3775 3809
3775 3811
3775 3819
3775 3941
3775 4034
3775 4164
3775 4360
3775 4411
3775 4458
3775 4637
3775 4770
3775 5531
3775 5575
3775 5606
3775 5716
3775 6071
3775 6104
3775 6393
3775 7096
3775 7398
3775 7431
3775 8105
3775 8285
3775 8326
3775 8500
3775 8608
3775 8924
3775 9152
3776 3820
3776 4587
3776 4811
3776 6503
3776 7308
3776 7863
3776 8233
3776 8489
3776 8846
3776 9427
3776 9678
3777 3813
3777 3931
3777 4331
3777 4618
3777 5714
3777 6101
3777 7466
3777 8218
3777 8378
3777 8381
3777 8881
3777 9677
3777 9684
3778 5134
3778 5195
3778 6981
3778 7693
3778 7882
3778 8545
3778 9510
3779 3964
3779 4299
3779 4878
3779 5163
3779 5302
3779 6421
3779 7688
3779 9020
3779 9763
3780 3796
3780 3930
3780 4134
3780 4188
3780 4237
3780 4833
3780 5984
3780 6022
3780 6378
3780 7857
3780 8037
3780 8443
3780 9180
3780 9641
3780 9675
3780 9846
3780 9857
3781 4783
3781 6044
3781 7902
3781 8618
3781 8715
3781 9148
3782 3949
3782 3982
3782 4618
3782 5782
3782 5930
3782 7291
3782 7468
3782 8202
3782 8429
3782 8970
3783 3795
3783 4131
3783 5244
3783 6379
3783 7278
3783 9649
3783 9669
3784 5486
3784 7089
3784 8156
3784 8243
3784 8541
3784 9832
3784 9919
3785 4104
3785 4728
3785 4839
3785 5084
3785 5434
3785 5652
3785 5658
3785 5707
3785 6225
3785 8023
3785 8492
3785 9277
3785 9309
3785 9978
3786 5907
3786 6078
3786 8441
3787 4442
3787 5827
3787 6641
3787 8077
3787 9302
3787 9517
3787 9759
3788 5660
3788 5687
3788 6673
3788 6970
3788 7881
3788 8016
3788 8311
3788 8550
3788 9399
3789 3840
3789 3926
3789 4533
3789 4586
3789 6230
3789 6485
3789 7638
3789 7866
3789 9016
3789 9274
3790 3833
3790 3970
3790 4021
3790 4557
3790 4614
3790 4855
3790 4856
3790 5523
3790 5552
3790 5603
3790 5962
3790 6197
3790 6318
3790 6441
3790 6828
3790 6903
3790 6965
3790 7010
3790 7026
3790 7578
3790 7913
3790 7973
3790 7980
3790 8117
3790 8127
3790 8167
3790 8192
3790 8370
3790 8371
3790 8739
3790 8943
3790 9088
3790 9746
3791 3863
3791 4548
3791 4809
3791 5274
3791 5280
3791 6619
3791 7209
3791 8327
3791 8900
3792 3956
3792 4354
3792 4373
3792 4407
3792 4896
3792 5709
3792 6105
3792 7642
3792 8318
3792 8814
3792 8936
3792 9479
3793 4028
3793 4377
3793 4473
3793 4518
3793 4535
3793 5081
3793 5178
3793 5642
3793 6986
3793 7085
3793 7223
3793 7311
3793 8027
3793 8049
3793 8349
3793 8359
3793 8863
3793 8961
3793 9404
3793 9921
3793 9958
3793 9968
3794 4112
3794 4381
3794 4388
3794 4628
3794 4775
3794 4890
3794 5008
3794 5180
3794 6295
3794 6766
3794 6862
3794 7124
3794 7243
3794 7246
3794 7639
3794 7997
3794 9600
3795 4250
3795 4726
3795 5208
3795 5657
3795 6058
3795 6471
3795 6594
3795 7107
3795 8195
3795 8503
3795 9046
3795 9283
3795 9302
3795 9410
3796 4455
3796 4601
3796 4760
3796 4968
3796 5270
3796 7074
3796 7987
3797 4146
3797 4375
3797 4533
3797 4991
3797 5030
3797 5115
3797 5180
3797 5560
3797 5617
3797 6373
3797 6707
3797 6712
3797 7021
3797 7078
3797 7109
3797 7183
3797 7261
3797 7401
3797 7669
3797 8124
3797 8260
3797 8280
3797 8478
3797 8491
3797 8540
3797 8731
3797 9193
3797 9704
3798 4447
3798 4972
3798 6483
3798 6774
3798 7756
3798 8102
3798 8536
3798 9162
3799 4409
3799 4916
3799 5713
3799 7947
3799 8031
3799 9217
3799 9357
3799 9815
3800 4867
3800 5706
3800 5841
3800 8346
3800 8760
3801 5095
3801 5336
3801 5621
3801 5634
3801 5849
3801 6584
3801 8217
3801 8724
3801 9537
3801 9542
3802 4217
3802 5242
3802 6198
3802 6450
3802 6489
3802 6510
3802 6782
3802 7019
3802 7325
3802 7409
3802 7816
3802 8313
3803 5044
3803 5133
3803 5703
3803 6072
3803 6667
3803 7290
3803 7480
3803 8508
3803 8811
3803 9065
3803 9276
3804 3834
3804 3896
3804 4006
3804 4274
3804 5058
3804 5095
3804 5406
3804 5747
3804 5749
3804 5796
3804 5989
3804 6022
3804 6147
3804 6679
3804 6800
3804 6867
3804 6898
3804 6952
3804 7214
3804 7223
3804 7349
3804 7931
3804 8042
3804 8126
3804 8368
3804 9281
3804 9282
3804 9996
3805 4576
3805 5250
3805 5621
3805 8082
3806 3814
3806 3963
3806 4290
3806 4801
3806 4851
3806 5711
3806 5749
3806 5854
3806 6618
3806 7799
3806 8513
3806 8806
3806 8815
3806 9123
3806 9310
3807 4111
3807 4236
3807 4755
3807 4779
3807 5387
3807 5652
3807 5969
3807 6596
3807 7037
3807 7119
3807 7258
3807 7590
3807 7818
3807 7881
3807 7902
3807 7988
3807 8255
3807 8643
3807 9180
3807 9368
3807 9430
3807 9830
3808 4095
3808 4643
3808 4741
3808 4949
3808 5094
3808 5563
3808 5591
3808 7170
3808 7758
3808 7882
3808 8025
3808 9704
3809 3819
3809 4626
3809 4735
3809 5574
3809 6393
3809 7287
3809 7357
3809 7635
3809 7848
3809 8144
3809 8508
3810 3820
3810 3908
3810 3987
3810 4964
3810 6585
3810 6939
3810 7486
3810 8718
3810 9661
3811 3928
3811 4154
3811 4538
3811 4812
3811 5751
3811 5899
3811 6502
3811 6726
3811 7724
3811 8288
3811 9612
3812 4120
3812 4564
3812 6285
3812 6946
3812 7214
3812 7317
3812 8302
3812 9500
3813 4127
3813 4512
3814 3835
3814 3954
3814 4126
3814 4742
3814 5300
3814 6358
3814 7088
3814 7169
3814 7551
3814 8188
3814 8354
3814 8878
3814 9744
3815 4691
3815 5328
3815 5540
3815 6595
3815 7653
3815 8145
3815 8465
3815 9470
3815 9607
3815 9710
3815 9755
3816 4421
3816 6795
3816 6941
3816 8062
3816 8239
3816 9997
3817 4533
3817 5140
3817 5406
3817 5550
3817 5724
3817 5979
3817 6037
3817 6495
3817 8272
3817 8648
3817 8800
3817 8906
3817 8997
3817 9128
3817 9303
3817 9673
3817 9982
3818 4605
3818 6822
3818 7990
3818 7996
3818 8060
3818 8171
3818 8378
3818 8418
3818 8510
3818 8540
3818 8754
3818 9257
3818 9316
3818 9538
3818 9821
3818 9968
3819 4187
3819 4458
3819 4620
3819 4688
3819 4841
3819 4880
3819 5233
3819 5300
3819 5505
3819 5774
3819 6013
3819 6111
3819 6393
3819 7977
3819 9247
3820 3987
3820 4196
3820 4495
3820 4528
3820 4626
3820 4902
3820 4984
3820 5124
3820 5141
3820 5486
3820 5607
3820 5664
3820 6064
3820 6115
3820 6503
3820 6585
3820 6926
3820 7398
3820 7459
3820 7644
3820 8139
3820 8169
3820 8364
3820 9438
3820 9948
3821 3872
3821 4264
3821 4420
3821 4792
3821 5135
3821 5814
3821 5818
3821 6126
3821 6237
3821 6430
3821 6984
3821 7027
3821 7139
3821 7285
3821 7300
3821 7744
3821 8041
3821 8103
3821 8197
3821 8252
3821 8326
3821 9093
3821 9131
3821 9426
3821 9444
3821 9483
3821 9981
3821 9991
3822 5093
3822 6521
3822 6959
3822 7957
3822 8554
3822 8900
3823 3865
3823 4040
3823 4626
3823 4763
3823 4830
3823 4922
3823 6157
3823 6545
3823 7063
3823 7791
3823 8302
3823 8949
3823 9300
3824 4692
3824 5372
3824 5396
3824 5801
3824 5954
3824 7458
3824 8848
3824 9853
3825 5468
3825 5721
3825 7159
3825 7755
3825 7880
3825 8279
3826 4444
3826 5892
3826 6709
3826 6838
3826 7153
3826 7517
3826 7821
3826 9362
3827 4114
3827 5370
3827 5406
3827 5937
3827 5973
3827 6318
3827 7079
3827 7889
3827 8318
3827 8427
3827 8769
3827 9210
3827 9257
3827 9456
3827 9827
3828 4675
3828 5801
3828 5959
3828 8327
3829 6427
3829 6972
3829 8835
3829 9120
3829 9667
3829 9763
3830 4045
3830 4300
3830 4805
3830 5069
3830 5630
3830 6560
3830 6580
3830 7920
3831 4564
3831 5106
3831 5984
3831 7234
3831 7238
3831 7329
3831 7763
3831 7975
3831 8693
3831 9338
3831 9470
3832 6364
3832 6988
3832 7186
3832 7351
3832 8138
3832 8897
3832 9009
3832 9387
3833 4000
3833 4274
3833 4902
3833 6902
3833 7380
3833 7774
3833 8328
3833 8882
3833 9826
3834 3992
3834 4134
3834 4172
3834 4673
3834 4771
3834 4962
3834 5191
3834 5192
3834 5194
3834 5592
3834 5606
3834 5691
3834 6071
3834 6224
3834 6431
3834 6672
3834 6822
3834 7201
3834 7540
3834 7762
3834 8019
3834 8885
3834 8966
3834 9005
3834 9087
3834 9154
3834 9601
3834 9635
3834 9772
3834 9886
3835 4024
3835 5114
3835 5826
3835 6063
3835 6554
3835 6953
3835 7291
3835 9256
3835 9316
3836 5777
3836 5919
3836 6021
3836 6025
3836 6208
3836 6590
3836 8678
3836 9022
3837 3860
3837 3944
3837 4995
3837 6835
3837 7910
3837 8221
3837 8833
3837 9561
3837 9820
3837 9872
3838 4413
3838 4918
3838 5803
3838 6286
3838 6509
3838 6868
3838 6897
3839 4520
3839 6178
3839 6517
3839 7370
3839 8378
3839 9753
3840 5009
3840 5684
3840 8074
3840 8565
3840 8768
3840 9350
3841 4245
3841 7067
3841 7090
3842 5660
3842 5707
3842 6225
3842 7063
3842 7245
3842 8258
3842 8280
3842 9330
3843 3899
3843 4182
3843 5440
3843 5785
3843 5801
3843 6877
3843 7486
3843 7721
3843 7928
3843 8906
3843 9536
3844 4191
3844 4476
3844 4527
3844 5620
3844 7229
3844 7618
3844 8187
3844 8228
3844 8712
3844 9267
3844 9490
3845 3967
3845 4217
3845 4244
3845 5507
3845 6813
3845 7714
3845 8711
3845 8854
3845 9067
3846 4450
3846 5377
3846 6104
3846 6583
3846 8968
3846 8972
3846 9345
3847 4205
3847 4389
3847 4766
3847 4970
3847 5510
3847 6750
3847 7925
3847 8014
3847 8848
3848 5414
3848 6244
3848 6573
3848 7097
3848 7874
3848 8287
3849 3995
3849 4471
3849 4958
3849 5452
3849 5704
3849 7081
3849 7222
3849 7261
3849 7451
3849 8260
3849 8283
3849 8358
3849 8527
3849 9696
3849 9962
3850 5970
3850 6549
3850 6719
3850 7568
3850 8596
3850 8888
3850 9695
3850 9967
3851 4428
3851 4554
3851 4966
3851 5280
3851 5295
3851 5493
3851 6150
3851 7213
3851 8174
3851 8270
3851 9637
3852 3946
3852 4039
3852 4661
3852 5568
3852 6047
3852 6523
3852 6654
3852 7196
3852 7953
3852 8081
3852 8215
3852 9145
3852 9267
3852 9283
3852 9468
3852 9648
3852 9659
3852 9665
3852 9845
3852 9924
3853 4240
3853 4416
3853 4971
3853 7108
3853 7467
3853 8434
3853 9318
3853 9921
3854 4370
3854 6020
3854 6255
3854 7143
3854 7993
3854 8824
3855 4618
3855 4678
3855 5216
3855 6503
3855 6559
3855 7037
3855 7641
3855 7749
3855 7839
3855 8113
3855 8176
3855 8892
3855 9017
3855 9154
3855 9268
3855 9657
3856 4851
3856 5079
3856 5611
3856 5643
3856 7221
3856 7669
3856 8553
3856 8847
3856 9001
3856 9111
3856 9961
3857 5406
3857 7114
3857 8222
3857 8420
3857 9709
3857 9777
3858 4940
3858 5091
3858 5644
3858 6840
3858 6948
3858 7410
3858 7679
3858 7758
3858 8073
3858 9594
3859 4430
3859 5410
3859 5422
3859 5702
3859 5839
3859 5854
3859 6053
3859 6185
3859 6321
3859 6888
3859 6916
3859 7917
3859 8127
3859 8298
3859 8448
3859 8650
3859 8759
3859 9063
3859 9434
3859 9655
3860 4098
3860 4674
3860 4731
3860 4867
3860 4998
3860 5211
3860 5723
3860 6366
3860 6396
3860 7220
3860 7576
3860 7733
3860 7754
3860 9181
3860 9215
3861 5037
3861 5744
3861 6636
3861 8181
3861 8208
3861 8460
3861 8759
3861 8772
3861 9957
3862 4062
3862 4393
3862 5128
3862 5272
3862 7656
3862 8188
3862 9205
3862 9214
3863 5280
3863 6619
3863 6706
3863 7035
3863 8749
3863 9921
3864 3883
3864 3978
3864 4130
3864 4297
3864 4601
3864 4949
3864 5374
3864 5565
3864 5638
3864 6073
3864 6540
3864 6547
3864 6558
3864 6736
3864 6791
3864 7445
3864 7608
3864 7685
3864 8567
3864 8903
3864 9596
3864 9688
3864 9789
3864 9875
3865 4176
3865 5347
3865 6309
3865 6371
3865 6410
3865 6756
3865 9572
3866 4596
3866 4856
3866 4917
3866 5231
3866 8434
3866 8475
3866 8588
3866 9063
3867 4276
3867 7208
3867 7872
3867 8542
3867 8633
3867 9065
3867 9411
3867 9612
3867 9853
3868 6059
3868 6728
3868 7006
3868 8337
3868 8742
3868 8748
3869 4936
3869 5037
3869 5038
3869 5464
3869 6435
3869 9558
3870 3918
3870 3977
3870 4429
3870 4461
3870 4513
3870 4602
3870 5395
3870 5597
3870 6575
3870 6637
3870 8078
3870 8203
3870 8226
3870 9009
3870 9172
3870 9415
3871 5860
3871 6546
3871 7610
3871 7699
3871 7732
3871 8019
3871 8133
3871 8606
3871 8872
3871 9370
3872 4443
3872 5198
3872 5625
3872 7393
3872 9418
3873 4315
3873 4319
3873 4376
3873 4399
3873 5438
3873 5959
3873 6062
3873 7246
3873 7463
3873 7543
3873 8288
3873 8540
3873 8594
3873 9112
3873 9160
3873 9495
3873 9511
3873 9536
3873 9791
3873 9935
3874 5222
3874 5469
3874 7301
3874 8175
3874 8644
3874 9350
3875 4436
3875 4964
3875 5390
3875 6268
3875 6604
3875 7282
3875 8148
3876 4208
3876 4873
3876 5226
3876 5304
3876 5873
3876 6109
3876 6135
3876 6196
3876 7154
3876 7390
3876 7765
3876 7942
3876 8375
3876 8445
3876 8822
3876 9097
3876 9491
3876 9689
3877 4329
3877 6170
3877 7291
3877 7993
3877 8390
3878 4410
3878 4980
3878 6025
3878 7106
3878 7155
3878 7356
3878 8210
3878 8292
3878 9531
3878 9555
3878 9836
3879 4631
3879 5620
3879 6042
3879 6397
3879 6948
3879 8554
3879 9525
3880 4300
3880 4335
3880 5186
3880 5370
3880 5962
3880 6916
3880 7980
3880 8318
3880 8370
3880 8446
3880 9598
3880 9958
3881 5413
3881 7519
3881 7855
3881 8092
3881 8294
3881 8405
3881 8527
3881 9773
3881 9779
3881 9879
3882 5319
3882 5913
3882 6716
3882 8305
3882 8316
3882 8318
3882 8365
3882 8372
3882 8624
3882 9166
3882 9815
3883 4409
3883 4689
3883 4750
3883 6156
3883 6197
3883 7662
3884 5960
3884 6793
3884 6826
3884 7392
3884 8059
3884 8157
3885 4355
3885 4807
3885 5643
3885 5808
3885 7272
3885 7391
3885 7909
3885 8602
3885 8869
3885 9549
3886 5444
3886 5705
3886 6085
3886 6593
3886 6940
3886 7852
3886 8328
3886 8785
3887 4331
3887 4367
3887 4775
3887 5933
3887 6249
3887 6813
3887 6877
3887 7425
3887 8974
3887 9004
3887 9816
3888 4154
3888 4503
3888 6499
3888 7400
3888 7714
3888 9253
3889 3918
3889 4051
3889 5140
3889 5319
3889 6197
3889 6221
3889 6577
3889 6955
3889 7054
3889 7279
3889 7887
3889 8035
3889 8325
3889 8526
3889 8840
3889 9542
3889 9721
3890 4454
3890 5048
3890 5056
3890 5171
3890 5513
3890 6454
3890 6877
3890 7005
3890 7080
3890 7527
3890 7729
3890 7817
3890 7959
3890 8611
3890 8730
3890 9596
3890 9757
3890 9991
3891 4589
3891 5090
3891 5105
3891 5159
3891 6684
3891 6804
3891 9284
3891 9954
3892 4269
3892 6256
3892 6514
3892 6571
3892 6590
3892 7256
3892 7778
3892 8194
3892 8656
3892 8809
3892 8977
3893 5422
3893 5856
3893 5961
3893 6575
3893 7017
3893 7963
3893 8745
3893 8941
3893 9862
3894 4087
3894 4734
3894 5185
3894 5855
3894 6440
3894 8475
3894 8991
3895 5620
3895 6285
3895 6339
3895 6883
3895 7241
3895 7608
3895 7666
3895 7799
3895 7894
3895 8078
3895 9820
3896 4382
3896 4913
3896 4936
3896 5154
3896 5275
3896 5771
3896 5957
3896 6807
3896 6959
3896 7095
3896 7258
3896 7311
3896 7349
3896 7402
3896 7778
3896 8042
3896 8131
3896 8618
3896 8848
3896 9058
3896 9563
3896 9804
3896 9974
3897 4058
3897 4385
3897 5042
3897 6206
3897 6613
3897 7659
3897 9208
3897 9219
3897 9556
3898 4108
3898 4149
3898 4377
3898 4449
3898 4577
3898 4578
3898 4698
3898 4747
3898 4755
3898 4861
3898 5416
3898 5441
3898 5519
3898 5996
3898 6658
3898 6993
3898 7137
3898 7406
3898 7589
3898 7800
3898 7829
3898 7894
3898 7931
3898 8043
3898 8113
3898 8858
3898 9193
3898 9277
3898 9386
3898 9918
3899 4938
3899 5280
3899 5801
3899 6198
3899 7795
3899 7842
3899 8198
3899 8911
3899 9911
3899 9912
3900 5651
3900 5851
3900 6315
3900 6626
3900 7253
3900 8343
3900 8401
3900 8452
3900 8553
3900 9035
3900 9608
3900 9690
3901 4656
3901 5083
3901 5377
3901 7369
3901 8428
3901 8994
3901 9345
3902 6209
3902 7709
3902 7791
3902 9553
3902 9643
3902 9782
3902 9831
3903 4462
3903 6247
3903 7656
3903 8084
3903 9381
3904 3913
3904 5088
3904 5327
3904 6226
3904 7166
3904 8636
3904 8722
3904 8907
3904 9179
3904 9208
3904 9259
3904 9918
3905 4048
3905 4447
3905 5095
3905 7114
3905 7698
3905 7757
3905 9223
3905 9739
3906 4308
3906 4791
3906 5637
3906 6499
3906 7811
3906 8465
3906 9032
3906 9484
3906 9721
3906 9740
3906 9807
3906 9861
3907 3955
3907 6278
3907 6625
3907 7359
3907 8696
3907 9932
3908 4521
3908 4526
3908 4848
3908 4931
3908 5082
3908 5585
3908 5946
3908 6845
3908 6901
3908 8233
3908 8407
3908 8557
3908 8609
3908 8674
3908 8682
3908 9103
3908 9407
3908 9573
3908 9858
3908 9958
3909 4177
3909 5662
3909 6283
3909 6337
3909 7410
3909 7491
3910 4862
3910 5091
3910 5584
3910 6079
3910 6929
3910 8223
3910 8459
3910 8493
3910 9630
3910 9968
3911 4324
3911 4352
3911 4580
3911 5339
3911 5909
3911 6037
3911 8034
3911 8043
3911 8188
3911 8639
3912 4070
3912 5240
3912 5704
3912 5791
3912 6373
3912 6798
3912 6908
3912 8217
3913 4637
3913 4732
3913 4803
3913 5073
3913 5125
3913 5340
3913 5591
3913 5695
3913 5895
3913 5940
3913 6005
3913 6526
3913 7378
3913 7450
3913 7554
3913 7567
3913 7737
3913 7807
3913 7962
3913 8094
3913 8619
3913 8990
3913 9415
3913 9576
3913 9681
3913 9710
3914 3930
3914 5026
3914 5315
3914 5917
3914 6516
3914 6591
3914 6756
3914 6808
3914 8163
3914 8412
3914 8447
3914 9357
3914 9985
3915 3949
3915 4167
3915 4913
3915 4938
3915 6382
3915 6986
3915 8005
3915 8235
3915 8656
3915 8852
3915 9126
3915 9614
3915 9745
3916 4113
3916 4560
3916 6419
3916 6687
3916 7967
3916 8130
3917 4429
3917 4483
3917 4578
3917 5238
3917 5982
3917 6181
3917 6302
3917 6793
3917 7293
3917 7770
3917 8285
3917 8309
3917 8705
3917 9721
3917 9948
3918 4881
3918 4997
3918 5416
3918 5880
3918 6157
3918 6211
3918 6577
3918 6972
3918 7279
3918 7308
3918 7887
3918 8026
3918 9183
3918 9637
3919 4068
3919 4860
3919 5036
3919 5887
3919 6372
3919 8653
3919 8738
3920 5255
3920 5287
3920 5312
3920 6046
3920 7500
3920 7867
3920 7929
3920 8318
3920 8377
3921 4702
3921 7160
3921 9419
3921 9697
3922 4245
3922 6929
3922 7035
3922 7174
3922 7455
3922 7939
3922 9833
3922 9876
3922 9885
3923 3974
3923 4397
3923 4458
3923 5114
3923 5648
3923 6074
3923 6144
3923 6347
3923 6369
3923 6525
3923 7909
3923 8878
3923 9377
3923 9779
3924 5091
3924 6998
3924 7426
3924 9486
3924 9594
3924 9654
3924 9930
3925 4081
3925 4394
3925 4423
3925 4484
3925 4521
3925 4660
3925 5018
3925 5058
3925 5112
3925 5635
3925 5732
3925 6225
3925 7574
3925 7596
3925 7696
3925 8185
3925 9031
3925 9459
3925 9742
3925 9756
3925 9847
3926 4174
3926 5037
3926 5770
3926 7156
3926 7554
3926 8114
3926 8698
3926 8943
3927 4518
3927 4623
3927 5955
3927 6396
3927 6800
3927 7618
3928 4192
3928 5169
3928 5524
3928 5774
3928 5812
3928 5932
3928 6004
3928 6100
3928 6203
3928 6486
3928 6895
3928 7269
3928 7295
3928 7461
3928 7835
3928 7854
3928 8854
3928 9209
3929 4613
3929 5004
3929 5103
3929 5507
3929 5667
3929 6635
3929 7957
3929 8190
3929 9036
3929 9548
3929 9612
3929 9936
3930 4296
3930 5256
3930 5805
3930 7683
3930 8676
3930 8845
3930 9571
3931 4654
3931 5906
3931 6302
3931 6438
3931 6459
3931 6507
3931 6683
3931 6776
3931 6787
3931 6907
3931 7522
3931 7882
3931 8838
3931 8853
3931 8919
3931 9122
3931 9133
3931 9450
3931 9836
3931 9887
3932 4903
3932 5131
3932 6245
3932 7056
3932 7431
3932 7548
3932 7609
3932 7658
3932 8134
3932 9694
3932 9727
3933 4308
3933 4594
3933 4896
3933 5933
3933 6312
3933 6741
3933 7834
3933 8119
3933 8805
3933 9448
3934 4581
3934 5007
3934 5321
3934 7056
3934 8618
3934 9329
3934 9484
3935 4017
3935 4503
3935 5997
3935 6758
3935 8002
3935 9325
3936 4019
3936 4342
3936 6515
3936 6645
3936 8073
3936 8085
3936 9581
3937 5788
3937 5893
3937 6499
3937 6583
3937 6674
3937 7306
3937 7903
3937 8212
3937 8892
3937 9856
3938 4471
3938 6324
3938 7896
3938 8646
3938 9111
3938 9349
3939 4916
3939 5008
3939 5294
3939 5829
3939 6263
3939 6441
3939 7429
3939 7721
3939 9086
3939 9483
3939 9487
3939 9697
3940 4300
3940 5235
3940 6418
3940 6594
3940 6814
3940 8288
3940 9200
3940 9989
3941 5928
3941 6187
3941 6234
3941 6334
3941 6785
3941 6951
3941 8679
3942 4379
3942 4416
3942 5558
3942 6950
3942 7895
3942 8133
3942 8841
3943 4127
3943 4136
3943 4782
3943 5004
3943 5311
3943 5467
3943 5790
3943 6774
3943 6815
3943 7761
3943 9195
3943 9624
3943 9817
3943 9926
3944 4162
3944 5980
3944 6181
3944 6442
3944 6864
3944 7876
3944 8198
3944 9098
3944 9207
3944 9509
3945 5443
3945 6659
3945 6959
3945 8254
3945 8300
3945 8428
3945 8430
3945 8527
3945 8644
3945 8976
3945 9170
3945 9174
3946 4021
3946 4385
3946 5019
3946 7071
3946 7460
3946 7536
3946 8264
3946 8290
3946 8663
3946 8714
3946 9038
3946 9053
3946 9237
3946 9450
3947 4868
3947 5101
3947 6053
3947 6232
3947 6524
3947 7136
3947 7553
3947 8010
3947 8675
3947 9846
3947 9876
3947 9932
3948 5273
3948 6327
3948 7246
3948 8248
3948 8976
3948 9122
3948 9351
3949 3982
3949 5157
3949 6451
3949 7075
3949 7214
3949 7468
3949 7740
3949 9899
3950 4620
3950 4761
3950 4928
3950 4958
3950 5015
3950 6168
3950 8071
3951 4312
3951 4480
3951 5440
3951 5500
3951 6001
3951 6023
3951 7652
3951 8719
3951 8755
3952 3956
3952 4619
3952 4962
3952 5311
3952 6075
3952 6341
3952 6432
3952 6650
3952 6886
3952 7001
3952 7179
3952 7511
3952 7909
3952 9240
3952 9539
3952 9542
3952 9965
3953 5186
3953 6352
3953 6688
3953 6790
3953 7594
3953 7620
3953 7980
3953 8574
3953 9162
3953 9936
3954 4554
3954 6919
3954 7551
3954 8273
3954 8878
3954 9522
3954 9744
3955 4806
3955 4837
3955 5362
3955 5518
3955 5805
3955 6047
3955 6291
3955 6591
3955 6919
3955 9124
3956 4240
3956 4404
3956 4407
3956 4499
3956 6269
3956 6720
3956 7683
3956 7899
3956 8814
3956 9904
3956 9988
3957 5045
3957 5443
3957 6199
3957 6776
3957 7537
3957 7579
3957 9088
3957 9977
3958 4133
3958 5015
3958 6109
3958 6273
3958 7023
3958 7225
3958 9646
3958 9947
3959 4086
3959 4699
3959 4994
3959 5851
3959 6568
3959 6755
3959 7574
3959 8128
3959 9841
3960 4197
3960 5590
3960 5944
3960 8073
3960 8236
3960 8263
3960 9599
3960 9872
3961 4494
3961 6150
3961 6482
3961 6601
3961 7154
3961 7616
3961 7882
3961 7995
3961 8406
3962 4931
3962 7107
3962 8862
3963 4014
3963 4179
3963 4488
3963 4785
3963 4800
3963 4956
3963 5271
3963 5523
3963 6852
3963 7041
3963 7243
3963 7268
3963 7523
3963 7555
3963 8523
3963 8689
3963 9106
3963 9332
3964 4442
3964 4878
3964 5959
3964 5965
3964 6251
3964 6485
3964 6944
3964 7942
3964 8563
3964 8949
3964 9020
3965 4024
3965 4597
3965 5488
3965 6620
3965 6904
3965 6972
3965 7667
3965 8182
3965 9126
3965 9173
3965 9966
3966 5114
3966 5455
3966 5505
3966 5615
3966 6367
3966 7971
3966 8158
3966 8381
3966 9825
3967 4964
3967 5105
3967 6653
3967 6736
3967 8396
3967 8799
3967 8880
3967 9204
3967 9233
3968 4284
3968 5527
3968 5540
3968 6392
3968 6443
3968 6754
3968 6777
3968 8011
3968 8459
3968 8757
3968 9389
3968 9424
3968 9898
3968 9916
3969 3987
3969 4587
3969 5071
3969 5218
3969 5362
3969 9201
3969 9281
3969 9697
3969 9879
3970 4160
3970 5186
3970 7265
3970 7721
3970 7830
3970 7980
3970 8446
3970 9139
3971 5207
3971 5666
3971 6352
3971 7045
3971 7296
3971 7459
3972 3988
3972 3997
3972 4054
3972 4241
3972 4542
3972 4555
3972 4756
3972 4772
3972 4830
3972 4837
3972 4878
3972 5095
3972 5142
3972 5447
3972 5938
3972 6152
3972 6217
3972 6219
3972 6338
3972 6502
3972 6587
3972 6736
3972 7417
3972 7673
3972 7945
3972 8044
3972 8393
3972 8935
3972 9160
3973 4431
3973 4571
3973 4705
3973 4910
3973 5536
3973 6200
3973 6653
3973 7172
3973 7456
3973 7602
3973 7795
3973 7799
3973 8078
3973 8118
3973 8259
3973 8275
3973 9030
3973 9222
3973 9387
3974 4402
3974 7272
3974 7774
3974 8602
3975 4036
3975 5064
3975 5550
3975 5555
3975 5968
3975 6075
3975 6845
3975 7858
3975 8116
3975 8239
3975 8303
3975 8907
3975 8965
3975 9347
3975 9944
3975 9977
3976 4431
3976 4680
3976 5794
3976 5930
3976 6197
3976 6302
3976 6383
3976 6931
3976 9137
3976 9626
3977 4442
3977 5215
3977 5951
3977 6165
3977 6254
3977 6380
3977 6456
3977 6919
3977 7084
3977 7100
3977 7380
3977 7593
3977 8742
3977 9607
3977 9639
3978 4304
3978 4472
3978 4665
3978 4978
3978 5168
3978 5435
3978 5961
3978 6267
3978 7914
3978 8022
3978 9101
3978 9994
3979 5356
3979 5404
3979 5891
3979 8081
3979 8223
3979 8669
3979 9885
3980 4189
3980 5600
3980 5985
3980 6064
3980 6218
3980 6268
3980 6351
3980 6441
3980 7642
3980 8694
3980 9313
3981 6152
3981 6160
3981 6490
3981 6578
3981 6672
3981 7023
3981 7492
3981 9998
3982 4871
3982 5157
3982 5312
3982 5547
3982 5930
3982 6690
3982 7291
3982 7468
3982 8447
3982 8570
3982 8581
3983 4915
3983 5332
3983 6441
3983 6709
3983 8647
3983 9320
3984 4191
3984 4521
3984 4802
3984 4951
3984 5480
3984 5828
3984 7108
3984 7223
3984 7279
3984 7832
3984 8105
3984 8885
3984 9002
3984 9197
3985 4042
3985 4778
3985 5928
3985 7308
3985 8167
3985 8244
3985 8726
3985 9978
3986 5000
3986 5702
3986 6014
3986 6049
3986 6253
3986 6443
3986 6489
3986 6877
3986 7208
3986 7969
3986 8142
3986 8530
3986 8561
3986 9517
3987 6585
3987 7618
3987 8019
3987 8364
3987 9822
3988 4718
3988 4794
3988 5080
3988 6463
3988 7044
3988 7139
3988 7487
3988 7589
3988 7641
3988 8496
3988 9259
3989 4404
3989 4652
3989 5008
3989 5609
3989 6154
3989 6307
3989 8188
3989 9692
3990 4138
3990 4993
3990 5317
3990 5460
3990 5512
3990 6542
3990 6828
3990 7126
3990 7193
3990 7304
3990 7478
3990 7759
3990 7906
3990 9174
3990 9206
3990 9269
3990 9658
3990 9996
3991 4283
3991 5344
3991 5664
3991 6213
3991 6295
3991 6740
3991 7117
3991 8609
3992 4373
3992 4471
3992 4490
3992 5008
3992 5369
3992 5433
3992 6324
3992 6610
3992 6960
3992 7014
3992 8042
3993 4273
3993 4563
3993 4967
3993 6244
3993 6259
3993 8422
3993 9657
3993 9903
3994 4025
3994 4689
3994 4750
3994 6359
3994 7595
3994 8903
3995 5195
3995 6191
3995 6238
3995 7081
3995 7451
3995 7887
3995 8260
3995 8358
3995 9231
3996 4195
3996 4407
3996 4422
3996 7609
3996 7836
3996 8584
3996 8723
3996 9627
3996 9674
3996 9876
3996 9908
3997 4228
3997 4249
3997 4541
3997 4549
3997 4686
3997 4756
3997 5095
3997 6219
3997 6502
3997 7945
3997 8446
3998 4410
3998 4801
3998 5192
3998 5376
3998 5383
3998 5385
3998 6408
3998 6725
3998 7225
3998 8270
3998 8525
3998 8592
3998 9046
3998 9424
3998 9534
3999 4138
3999 4166
3999 5808
3999 6107
3999 7510
3999 7981
3999 8293
3999 9343
3999 9636
3999 9734
4000 4717
4000 4789
4000 5892
4000 6012
4000 6378
4000 6947
4000 7180
4000 7218
4000 7756
4000 8415
4001 4630
4001 5146
4001 6221
4001 7185
4001 7186
4002 4445
4002 5886
4002 6442
4002 6481
4002 7622
4002 7928
4002 9073
4002 9892
4003 4087
4003 4356
4003 4734
4003 5335
4003 5350
4003 6440
4003 6609
4003 6946
4003 8435
4003 8475
4003 9021
4003 9586
4003 9731
4003 9792
4004 4525
4004 4979
4004 5891
4004 6786
4004 6914
4004 7299
4004 7313
4004 7396
4004 8129
4004 8581
4004 9335
4004 9484
4004 9669
4005 4191
4005 4506
4005 4706
4005 4794
4005 5187
4005 5436
4005 6094
4005 6263
4005 6305
4005 6359
4005 6697
4005 6919
4005 7979
4005 8183
4005 8229
4005 8375
4005 8550
4005 8622
4005 8717
4005 9102
4005 9589
4005 9611
4005 9978
4006 4372
4006 4510
4006 4954
4006 5326
4006 5521
4006 6067
4006 6141
4006 6171
4006 7706
4006 8639
4006 8912
4006 9024
4007 4302
4007 4369
4007 4377
4007 4559
4007 4659
4007 6265
4007 6408
4007 6723
4007 7322
4007 7919
4007 8143
4007 8300
4007 8736
4007 9993
4008 4789
4008 5130
4008 5686
4008 6149
4008 6564
4008 8235
4008 8561
4008 8847
4008 8917
4009 6268
4009 6675
4009 7820
4009 9569
4010 4014
4010 4263
4010 4407
4010 4638
4010 6151
4010 7122
4010 7473
4010 7980
4010 8538
4010 9902
4011 4187
4011 4357
4011 5427
4011 5512
4011 6499
4011 6954
4011 8195
4011 8720
4011 9253
4011 9480
4011 9596
4012 4913
4012 4928
4012 5188
4012 5490
4012 5784
4012 6359
4012 8156
4012 8379
4012 9484
4013 4264
4013 4296
4013 5032
4013 5098
4013 5103
4013 5944
4013 6678
4013 6777
4013 7922
4013 8808
4013 9544
4013 9580
4014 4800
4014 5085
4014 5153
4014 5611
4014 5681
4014 6212
4014 6317
4014 6887
4014 7268
4014 7523
4014 7555
4014 7767
4014 8167
4014 9257
4014 9554
4015 4542
4015 4797
4015 4917
4015 5688
4015 5974
4015 6191
4015 8424
4015 8711
4016 4434
4016 4771
4016 5080
4016 7512
4016 7839
4016 8019
4016 8370
4016 8558
4016 8615
4016 8696
4016 9060
4016 9483
4017 4310
4017 4610
4017 4774
4017 5143
4017 6800
4017 6984
4017 7180
4017 7248
4017 7400
4017 7841
4017 8651
4017 8819
4017 9422
4018 5373
4018 5616
4018 6128
4018 6858
4018 6983
4018 7578
4018 7969
4018 8922
4018 8928
4018 9018
4018 9036
4018 9361
4018 9518
4018 9657
4018 9815
4019 6515
4019 6816
4019 7616
4019 8073
4019 8362
4019 8868
4019 8932
4019 9428
4020 4300
4020 5665
4020 5768
4020 5845
4020 6936
4020 8353
4020 8506
4020 9277
4020 9607
4020 9755
4021 4762
4021 5084
4021 5186
4021 5962
4021 6001
4021 6042
4021 6803
4021 8473
4022 4491
4022 5496
4022 6872
4022 8202
4022 8626
4022 8665
4023 4490
4023 4797
4023 4843
4023 4845
4023 5215
4023 5851
4023 7067
4023 7463
4023 8312
4023 9778
4023 9901
4024 4247
4024 4597
4024 5206
4024 5427
4024 6754
4024 7011
4024 7013
4024 7295
4024 7453
4024 7498
4024 7632
4024 7667
4024 7676
4024 7799
4024 7867
4024 8213
4024 8521
4024 8574
4024 9286
4025 5036
4025 5072
4025 5887
4025 6310
4025 8379
4025 8421
4025 8473
4025 8481
4025 9417
4025 9461
4025 9684
4026 4170
4026 4442
4026 4764
4026 5310
4026 5749
4026 6105
4026 6343
4026 6578
4026 6632
4026 6688
4026 6744
4026 7601
4026 7680
4026 7795
4026 8783
4026 9406
4027 4888
4027 5330
4027 6339
4027 7161
4027 7296
4027 7555
4027 8119
4027 9045
4027 9779
4028 4643
4028 4846
4028 5373
4028 5888
4028 6666
4028 7200
4028 7763
4028 8650
4028 9170
4028 9554
4028 9654
4028 9914
4029 4346
4029 4354
4029 5144
4029 5312
4029 6163
4029 6860
4029 7702
4029 8422
4029 8961
4029 9885
4029 9985
4030 4595
4030 4784
4030 4988
4030 5373
4030 5647
4030 5651
4030 6532
4030 7177
4030 8732
4030 9060
4030 9666
4030 9901
4031 4372
4031 5769
4031 5963
4031 6430
4031 7353
4031 7798
4031 9522
4031 9812
4031 9902
4031 9908
4031 9933
4032 4533
4032 5490
4032 6409
4032 8645
4032 9607
4032 9672
4033 4470
4033 5123
4033 5922
4033 6436
4033 6857
4033 7092
4033 8571
4033 9866
4034 4298
4034 4412
4034 4465
4034 4970
4034 5047
4034 5257
4034 5354
4034 6821
4034 8527
4035 4163
4035 5529
4035 5601
4035 5614
4035 6012
4035 7245
4035 8388
4035 8391
4035 8798
4035 9518
4035 9522
4036 4689
4036 5215
4036 6164
4036 6178
4036 6423
4036 6673
4036 8521
4036 8581
4036 8894
4036 9993
4037 4961
4037 5026
4037 5284
4037 5452
4037 7208
4037 7838
4037 7857
4037 8447
4037 8542
4037 8669
4037 9078
4037 9451
4037 9502
4037 9640
4038 4113
4038 4120
4038 4376
4038 4521
4038 6364
4038 6412
4038 6600
4038 7230
4038 8535
4038 8588
4038 9221
4038 9532
4039 4629
4039 4747
4039 5764
4039 6289
4039 6604
4039 6663
4039 7383
4039 8630
4039 9535
4039 9870
4040 4077
4040 4123
4040 6412
4040 6619
4040 6679
4040 7562
4040 8609
4040 9356
4040 9711
4041 4335
4041 4768
4041 4780
4041 4968
4041 5468
4041 5829
4041 6255
4041 6397
4041 6405
4041 6489
4041 6504
4041 6667
4041 6733
4041 7000
4041 7222
4041 7797
4041 8634
4041 8870
4041 9131
4041 9754
4042 5042
4042 5750
4042 7542
4042 8488
4043 7048
4043 7335
4044 5093
4044 5412
4044 7186
4044 8071
4044 8350
4044 9162
4044 9639
4044 9989
4045 4485
4045 6116
4045 8206
4045 8584
4045 8634
4045 9299
4045 9764
4046 4125
4046 4520
4046 4811
4046 5077
4046 5474
4046 6770
4046 6839
4046 7200
4046 7403
4046 8506
4046 8881
4046 9041
4046 9815
4047 6193
4047 7503
4047 7791
4047 8992
4047 9339
4047 9474
4048 4051
4048 4473
4048 4500
4048 4979
4048 6652
4048 6991
4048 8391
4048 8551
4048 8981
4048 9223
4048 9262
4048 9574
4049 4624
4049 4765
4049 5121
4049 5556
4049 5771
4049 8565
4049 9521
4050 4489
4050 5132
4050 5652
4050 5986
4050 6207
4050 9663
4050 9769
4051 4423
4051 4897
4051 5803
4051 8209
4051 9160
4051 9373
4052 4766
4052 4938
4052 5195
4052 5606
4052 5827
4052 7516
4052 8941
4052 9357
4052 9501
4052 9525
4052 9666
4053 4410
4053 5694
4053 9904
4053 9923
4054 4269
4054 4798
4054 4842
4054 5452
4054 5576
4054 6397
4054 7081
4054 7466
4054 7510
4054 8541
4054 9064
4055 4511
4055 4530
4055 4782
4055 5865
4055 6998
4055 7113
4055 7403
4055 7671
4055 7893
4055 8564
4055 8835
4055 9685
4056 4894
4056 5385
4056 6401
4056 6640
4056 6791
4056 7052
4056 7426
4056 7496
4056 7595
4056 7609
4056 8033
4056 8248
4056 8289
4056 8538
4056 8935
4056 9138
4056 9141
4056 9365
4056 9804
4057 4149
4057 4611
4057 4678
4057 4766
4057 5021
4057 5246
4057 5849
4057 6456
4057 6634
4057 6636
4057 7853
4057 7934
4057 7984
4057 8413
4057 8664
4057 8740
4057 9232
4057 9597
4057 9609
4057 9901
4058 5068
4058 5129
4058 5990
4058 6347
4058 6543
4058 7249
4058 7714
4058 7989
4058 8120
4059 4729
4059 5141
4059 5663
4059 5999
4059 6274
4059 7365
4059 7551
4059 7552
4059 8075
4059 8089
4059 8118
4059 8658
4059 8839
4059 8878
4059 9211
4059 9466
4059 9985
4060 4123
4060 5243
4060 5742
4060 5945
4060 6378
4060 6685
4060 7808
4060 8162
4060 8457
4060 8539
4060 8974
4060 9672
4061 5758
4061 6127
4061 6334
4061 6470
4061 6887
4061 7197
4061 8743
4061 8749
4061 8798
4062 4087
4062 7248
4062 8424
4062 8493
4063 4717
4063 4735
4063 4784
4063 5270
4063 5353
4063 6250
4063 7059
4063 7070
4063 8057
4063 8550
4063 9890
4063 9995
4064 4263
4064 4610
4064 4804
4064 5610
4064 5633
4064 6333
4064 6755
4064 7035
4064 7413
4064 8484
4064 8486
4064 8760
4064 9434
4065 4917
4065 4980
4065 5075
4065 7329
4065 7710
4065 8406
4065 8553
4065 8580
4066 6585
4066 6641
4066 7118
4066 7567
4066 7835
4066 7993
4066 8426
4066 9035
4066 9759
4066 9921
4067 5002
4067 5230
4067 6398
4067 7409
4067 8040
4067 8794
4067 8819
4067 8899
4067 9135
4068 4812
4068 6083
4068 6982
4068 7147
4068 7503
4068 7640
4068 7855
4068 8372
4068 8450
4068 9483
4069 4097
4069 4987
4069 6521
4069 7687
4069 7794
4069 7865
4069 9075
4069 9132
4069 9264
4069 9721
4069 9831
4070 4137
4070 4442
4070 5240
4070 5962
4070 6226
4070 6244
4070 6578
4070 6674
4070 6798
4070 6883
4070 6908
4070 6949
4070 7111
4070 7301
4070 7401
4070 7414
4070 7943
4070 8031
4070 8086
4070 8516
4070 8699
4070 8950
4070 9522
4071 5189
4071 5532
4071 5811
4071 5927
4071 7423
4071 7652
4071 7876
4071 8685
4071 9094
4071 9187
4072 4704
4072 5069
4072 5440
4072 6611
4072 6853
4072 6912
4072 8308
4072 8777
4072 8854
4072 9778
4072 9950
4073 4240
4073 5318
4073 8057
4073 8206
4073 8704
4073 8778
4073 9493
4073 9763
4074 4084
4074 4255
4074 4367
4074 4437
4074 5431
4074 5863
4074 6020
4074 6125
4074 6193
4074 6773
4074 7483
4074 7707
4074 7811
4074 7939
4074 8080
4074 8237
4074 8403
4074 8632
4074 9098
4074 9482
4074 9772
4074 9889
4074 9969
4075 4807
4075 5122
4075 5440
4075 7577
4075 9240
4076 4834
4076 5473
4076 5974
4076 7424
4076 8063
4076 8873
4076 9482
4076 9532
4077 4364
4077 6898
4077 6980
4077 7562
4077 9185
4078 5183
4078 6857
4078 7176
4078 7178
4078 8550
4078 9631
4079 5059
4079 6409
4079 7970
4079 8075
4079 8242
4079 8485
4079 8514
4080 4223
4080 4946
4080 5511
4080 6397
4080 7073
4080 8231
4080 8312
4080 8650
4080 8740
4080 8887
4080 9316
4080 9426
4080 9839
4080 9974
4081 4255
4081 4384
4081 4392
4081 4636
4081 4912
4081 5046
4081 5173
4081 5582
4081 6296
4081 6574
4081 6660
4081 7121
4081 7150
4081 7364
4081 7506
4081 7884
4081 7957
4081 7966
4081 8555
4081 8666
4081 8746
4081 8930
4081 8942
4081 9426
4081 9653
4081 9752
4082 4204
4082 4913
4082 5160
4082 6227
4082 6452
4082 6575
4082 6591
4082 6594
4082 6725
4082 6800
4082 8236
4082 8957
4083 4332
4083 4543
4083 4981
4083 5052
4083 5470
4083 6269
4083 6387
4083 6741
4083 7205
4083 7567
4083 9916
4084 5154
4084 5432
4084 6485
4084 6596
4084 6763
4084 7037
4084 7165
4084 8337
4084 8533
4084 9094
4084 9235
4084 9899
4085 4479
4085 5200
4085 5234
4085 5981
4085 6548
4085 6670
4085 7052
4085 7505
4085 7592
4085 8092
4085 8610
4086 4247
4086 4703
4086 5011
4086 5015
4086 5385
4086 5848
4086 6114
4086 6182
4086 6314
4086 6568
4086 6768
4086 6988
4086 7383
4086 7574
4086 7726
4086 7880
4086 7927
4086 8121
4086 8606
4086 8615
4086 9245
4086 9758
4087 4244
4087 4734
4087 5023
4087 5446
4087 6170
4087 6440
4087 6803
4087 7162
4087 7443
4087 8066
4087 8446
4087 8475
4087 8991
4087 9386
4087 9479
4088 5093
4088 5928
4088 6255
4088 6466
4088 7964
4088 8244
4088 8726
4088 9349
4088 9839
4088 9978
4089 4199
4089 4635
4089 7098
4089 8484
4089 8606
4089 9257
4090 4770
4090 4919
4090 5304
4090 5684
4090 5765
4090 6084
4090 8189
4090 8887
4090 9672
4090 9777
4091 4931
4091 6741
4091 7013
4091 7024
4091 9260
4091 9555
4092 4302
4092 4952
4092 5911
4092 5918
4092 6113
4092 6382
4092 7166
4092 7601
4092 7743
4092 8441
4092 8536
4092 8574
4092 8722
4092 8809
4092 8882
4092 8907
4092 9157
4092 9333
4092 9628
4092 9905
4093 4737
4093 4900
4093 5332
4093 6680
4093 7859
4093 8647
4093 9197
4094 4130
4094 4829
4094 5394
4094 6560
4094 9380
4094 9555
4095 4515
4095 5067
4095 5093
4095 5943
4095 6872
4095 7758
4095 7854
4095 8025
4095 8551
4095 8575
4095 8916
4096 4113
4096 4150
4096 4626
4096 4902
4096 7032
4096 7595
4096 7911
4096 7966
4096 8471
4096 8629
4097 4621
4097 4691
4097 5858
4097 5909
4097 7285
4097 7587
4097 7779
4097 8696
4097 8855
4097 9217
4097 9522
4098 4864
4098 6611
4098 7464
4098 8933
4098 9261
4098 9325
4099 4637
4099 4868
4099 4925
4099 5232
4099 6517
4099 7714
4099 8108
4099 8572
4099 8619
4099 8907
4099 9885
4100 6174
4100 6397
4100 7058
4100 7160
4100 7883
4100 8853
4101 4416
4101 5254
4101 5493
4101 6255
4101 8386
4101 8434
4101 8538
4101 9393
4102 5289
4102 5372
4102 5493
4102 5681
4102 5920
4102 5931
4102 6758
4102 6816
4102 7208
4102 7872
4102 7898
4102 8542
4102 9597
4102 9623
4102 9624
4102 9628
4103 4204
4103 4958
4103 4980
4103 5118
4103 5131
4103 5355
4103 5432
4103 5499
4103 5883
4103 6163
4103 6428
4103 6437
4103 6692
4103 6764
4103 6905
4103 6982
4103 7052
4103 7650
4103 8163
4103 8429
4103 8446
4103 8504
4103 8606
4103 8988
4103 9177
4103 9210
4104 4547
4104 4761
4104 4764
4104 5028
4104 5112
4104 5259
4104 5870
4104 5926
4104 6665
4104 7169
4104 7587
4104 7737
4104 8552
4104 8792
4104 9239
4104 9313
4105 4363
4105 5404
4105 6303
4105 8376
4105 8422
4105 9033
4105 9561
4106 4383
4106 5255
4106 5259
4106 6580
4106 7597
4106 8549
4107 4807
4107 5376
4107 5490
4107 5969
4107 6050
4107 6167
4107 6305
4107 6381
4107 6597
4107 7629
4107 8105
4107 8233
4107 9185
4108 4377
4108 5265
4108 5519
4108 6658
4108 6825
4108 7602
4108 7829
4108 8087
4108 9173
4108 9977
4109 4287
4109 6658
4109 6810
4109 6940
4109 7732
4109 8130
4109 8267
4109 8605
4109 8744
4109 9159
4109 9749
4109 9968
4110 4188
4110 5206
4110 5296
4110 5373
4110 5676
4110 8674
4110 8743
4110 9088
4110 9288
4110 9857
4110 9976
4111 5415
4111 5631
4111 6933
4111 7258
4111 8024
4111 8082
4111 8715
4111 8931
4111 9180
4111 9830
4112 4607
4112 4628
4112 6756
4112 9152
4112 9997
4113 6687
4113 6740
4113 6988
4113 7967
4113 8725
4113 8875
4113 9727
4113 9764
4114 4258
4114 4627
4114 4659
4114 5064
4114 5379
4114 5422
4114 5516
4114 5531
4114 5935
4114 5939
4114 6135
4114 6326
4114 6658
4114 6700
4114 6823
4114 7079
4114 7335
4114 7488
4114 7695
4114 8146
4114 8367
4114 8495
4114 8858
4114 9412
4114 9433
4114 9456
4114 9505
4115 4228
4115 4985
4115 5607
4115 6139
4115 6358
4115 6885
4115 8077
4115 9177
4115 9422
4115 9618
4115 9692
4116 4531
4116 4816
4116 5409
4116 6082
4116 6728
4116 6869
4116 6886
4116 6967
4116 7114
4116 7309
4116 7583
4116 7704
4116 7735
4116 7879
4116 7938
4116 8125
4116 8330
4116 8509
4116 8572
4116 9081
4116 9102
4116 9239
4117 4196
4117 5332
4117 5553
4117 5759
4117 6816
4117 7801
4117 7886
4117 8300
4117 8335
4117 8801
4118 4236
4118 4645
4118 5496
4118 6010
4118 6931
4118 7279
4118 7838
4118 8245
4118 8765
4118 9097
4118 9126
4118 9847
4119 4577
4119 5630
4119 7397
4119 7685
4119 8759
4119 9042
4120 4131
4120 4413
4120 4738
4120 4839
4120 4870
4120 5663
4120 5802
4120 5840
4120 5968
4120 6079
4120 6164
4120 6543
4120 6549
4120 6600
4120 6865
4120 7077
4120 7230
4120 7995
4120 9532
4120 9551
4121 4523
4121 4730
4121 5167
4121 5186
4121 6316
4121 6406
4121 7922
4121 8384
4121 9321
4122 4394
4122 5213
4122 5532
4122 5549
4122 6387
4122 6497
4122 7157
4122 7166
4122 7480
4122 7604
4122 9396
4123 4900
4123 5451
4123 5492
4123 6447
4123 6733
4123 6787
4123 6925
4123 9256
4123 9580
4123 9828
4124 5105
4124 5384
4124 8311
4124 8680
4124 8964
4124 9533
4125 4177
4125 5813
4125 5927
4125 5938
4125 6300
4125 6781
4125 7800
4125 8624
4126 6029
4126 6817
4126 6826
4126 6837
4126 6942
4126 9939
4127 4517
4127 4836
4127 4947
4127 5127
4127 5458
4127 5808
4127 5819
4127 5833
4127 6185
4127 6212
4127 6236
4127 7025
4127 7046
4127 7139
4127 7190
4127 7362
4127 7370
4127 7748
4127 8125
4127 8520
4127 8535
4127 8833
4127 8877
4127 9324
4127 9759
4128 4918
4128 5365
4128 5436
4128 5829
4128 5966
4128 5999
4128 6298
4128 6537
4128 7129
4128 7533
4128 7676
4128 8336
4128 9194
4129 4505
4129 4683
4129 4813
4129 4961
4129 5102
4129 5266
4129 5299
4129 5535
4129 6311
4129 6660
4129 6747
4129 7713
4129 7985
4129 8084
4129 8268
4129 8336
4129 8496
4129 8541
4129 8609
4129 9262
4129 9384
4129 9974
4130 4156
4130 4245
4130 4331
4130 4639
4130 4949
4130 5208
4130 5374
4130 5565
4130 5652
4130 6027
4130 6547
4130 6581
4130 6759
4130 6846
4130 7373
4130 7608
4130 7644
4130 7685
4130 7914
4130 8110
4130 8745
4131 4590
4131 4605
4131 4855
4131 4994
4131 5258
4131 6090
4131 6170
4131 6960
4131 7820
4131 7894
4131 8259
4131 8773
4131 9079
4131 9152
4131 9378
4131 9480
4131 9589
4132 4852
4132 6401
4132 6601
4132 6640
4132 7222
4132 7793
4132 8001
4132 8289
4132 8384
4132 8935
4132 9141
4132 9365
4133 4192
4133 4700
4133 4702
4133 4738
4133 5314
4133 5642
4133 5833
4133 5894
4133 6949
4133 7365
4133 8058
4133 8969
4133 9283
4133 9891
4134 4615
4134 5483
4134 5845
4134 6014
4134 6050
4134 6393
4134 6881
4134 6999
4134 7419
4134 7471
4134 7540
4134 8021
4134 8740
4134 9424
4134 9645
4134 9966
4135 4771
4135 5167
4135 6209
4135 6802
4135 6865
4135 6972
4135 7170
4135 7609
4135 8019
4135 8668
4135 9074
4136 4193
4136 4229
4136 4357
4136 4764
4136 5365
4136 5840
4136 7431
4136 7694
4136 7856
4136 8102
4136 8573
4136 8828
4136 8960
4136 8995
4136 9110
4136 9342
4136 9617
4137 5159
4137 5425
4137 6240
4137 6272
4137 6695
4137 6710
4137 6734
4137 6745
4137 8363
4137 8513
4138 5973
4138 6034
4138 6114
4138 6542
4138 6636
4138 6700
4138 6807
4138 6850
4138 7126
4138 7192
4138 7413
4138 7478
4138 7597
4138 7759
4138 7817
4138 7887
4138 7906
4138 8218
4138 9269
4138 9859
4138 9873
4138 9938
4139 4720
4139 5552
4139 6217
4139 6984
4139 7084
4139 7296
4139 7396
4139 7986
4139 9579
4140 4325
4140 5158
4140 5213
4140 5429
4140 5888
4140 7464
4140 7505
4140 7664
4140 8336
4140 9867
4141 5227
4141 5276
4141 5990
4141 6365
4141 7137
4141 7564
4141 7694
4141 8027
4141 8167
4141 8394
4141 8510
4141 9443
4141 9947
4142 4263
4142 4886
4142 5697
4142 5781
4142 6559
4142 6996
4142 7172
4142 7276
4142 7858
4142 8228
4142 8486
4143 4263
4143 5259
4143 5379
4143 5540
4143 5697
4143 5912
4143 6500
4143 7745
4143 7922
4143 8024
4143 8231
4143 8697
4143 9721
4143 9946
4144 5502
4144 6424
4144 8116
4144 8428
4144 8460
4144 8668
4144 8850
4144 9125
4145 4202
4145 4473
4145 4479
4145 4533
4145 5631
4145 6064
4145 6510
4145 6525
4145 7928
4145 8237
4146 4457
4146 4586
4146 4591
4146 5020
4146 5124
4146 5519
4146 5736
4146 6045
4146 6168
4146 6199
4146 6503
4146 7130
4146 7560
4146 7750
4146 7924
4146 8072
4146 8302
4146 8631
4146 8891
4146 9070
4146 9426
4146 9697
4146 9982
4147 4521
4147 4811
4147 5027
4147 5557
4147 6274
4147 7218
4147 8922
4147 9038
4147 9176
4147 9224
4147 9286
4147 9350
4148 6219
4148 6844
4149 5256
4149 6543
4149 6693
4149 8845
4149 8885
4149 9498
4149 9514
4150 4231
4150 4737
4150 5554
4150 5910
4150 6198
4150 6628
4150 6717
4150 7481
4150 7642
4150 7713
4150 7772
4150 7799
4150 8213
4150 8499
4150 8838
4150 8922
4150 8987
4150 9249
4150 9421
4150 9443
4150 9532
4151 4453
4151 5836
4151 6181
4151 7039
4151 7626
4151 7634
4151 7964
4151 8607
4152 4789
4152 5224
4152 7267
4152 7610
4152 8413
4152 8441
4152 8852
4152 8874
4153 4182
4153 4815
4153 5365
4153 5932
4153 6550
4153 6739
4153 7109
4153 7623
4153 8382
4153 8480
4153 8764
4153 9277
4153 9682
4154 5452
4154 6434
4154 6816
4154 6889
4154 7082
4154 8342
4154 9398
4155 4517
4155 4733
4155 8047
4155 8131
4155 9690
4156 4861
4156 6188
4156 6378
4156 6411
4156 6930
4156 7765
4156 7872
4156 8089
4156 8270
4156 8366
4156 8681
4156 8834
4156 8993
4156 9057
4157 5245
4157 5335
4157 5381
4157 5652
4157 5914
4157 6043
4157 6962
4157 7243
4157 7608
4157 7727
4157 8344
4157 8402
4157 8618
4157 8857
4157 9063
4157 9193
4157 9267
4157 9831
4158 4848
4158 5584
4158 5992
4158 6306
4158 7303
4158 7449
4158 7913
4158 7928
4158 7977
4158 9380
4158 9797
4159 4166
4159 4639
4159 4697
4159 4877
4159 5363
4159 5489
4159 5749
4159 5864
4159 6009
4159 6018
4159 6317
4159 7775
4159 7839
4159 8007
4159 8225
4159 8600
4159 8663
4159 9075
4159 9160
4159 9445
4159 9534
4159 9586
4159 9610
4159 9702
4159 9797
4159 9830
4160 4258
4160 5245
4160 6816
4160 6900
4160 7411
4160 8724
4160 9813
4161 4807
4161 5581
4161 6277
4161 6323
4161 6540
4161 6876
4161 6942
4161 8145
4161 9017
4161 9656
4161 9663
4162 4786
4162 5047
4162 5733
4162 6095
4162 6188
4162 6253
4162 6602
4162 6637
4162 6914
4162 7009
4162 7550
4162 8146
4162 8188
4162 8345
4162 8502
4162 8507
4162 8846
4162 8882
4162 9360
4162 9850
4163 4580
4163 6437
4163 6740
4163 6791
4163 7331
4163 8713
4164 4172
4164 4292
4164 4497
4164 4653
4164 5133
4164 5551
4164 5604
4164 5953
4164 6201
4164 6700
4164 6748
4164 6761
4164 6808
4164 6955
4164 7081
4164 7182
4164 7505
4164 7792
4164 7835
4164 8755
4164 9069
4165 4596
4165 4644
4165 5124
4165 5275
4165 5535
4165 6392
4165 7186
4165 8255
4165 8839
4165 9327
4165 9832
4166 4308
4166 4890
4166 5196
4166 5570
4166 5808
4166 6079
4166 6241
4166 7108
4166 7207
4166 7233
4166 7239
4166 8138
4166 8154
4166 8210
4166 8293
4166 8751
4166 9041
4166 9320
4166 9800
4167 5751
4167 6123
4167 7740
4167 8061
4167 8413
4167 8584
4167 8821
4167 8852
4167 9767
4168 4332
4168 5457
4168 6242
4168 6445
4168 8001
4169 5584
4169 6208
4169 6485
4169 6631
4169 8472
4169 8497
4169 8575
4169 9115
4170 4388
4170 4613
4170 4662
4170 4764
4170 6395
4170 6632
4170 6649
4170 6864
4170 7148
4170 7200
4170 7704
4170 7737
4170 8386
4170 9371
4170 9373
4170 9745
4171 4987
4171 6047
4171 6532
4171 8919
4172 4258
4172 5957
4172 6036
4172 6431
4172 7243
4172 8453
4172 9601
4172 9772
4172 9776
4172 9886
4173 4656
4173 5015
4173 5602
4173 6017
4173 6221
4173 6607
4173 6982
4173 7558
4173 8886
4174 5037
4174 5245
4174 5435
4174 6827
4174 7257
4174 7554
4174 8053
4174 8698
4174 8759
4174 9657
4175 4787
4175 8233
4175 8369
4175 8555
4175 9149
4175 9487
4176 5082
4176 5188
4176 5780
4176 5893
4176 6301
4176 6621
4176 6736
4176 7552
4176 8386
4176 8967
4176 9428
4177 4668
4177 5601
4177 5612
4177 5664
4177 5695
4177 5716
4177 5887
4177 6497
4177 6673
4177 6929
4177 6959
4177 7293
4177 7388
4177 7827
4177 8557
4177 8850
4177 9027
4177 9135
4177 9719
4178 4541
4178 5159
4178 5839
4178 5916
4178 6218
4178 6360
4178 7308
4178 7834
4178 8530
4178 8634
4178 8847
4178 9331
4178 9842
4179 4412
4179 4740
4179 5485
4179 5490
4179 6380
4179 6409
4179 6677
4179 7497
4179 8754
4179 9200
4180 4528
4180 5489
4180 5815
4180 6158
4180 6959
4180 7323
4180 7347
4180 9279
4180 9823
4181 4497
4181 4704
4181 4775
4181 5013
4181 5408
4181 6031
4181 6137
4181 6348
4181 7415
4181 8088
4182 5267
4182 6416
4182 6417
4182 6808
4182 7286
4182 7397
4182 7589
4182 8968
4183 4243
4183 6149
4183 6730
4183 9304
4183 9772
4184 4484
4184 6103
4184 6351
4184 7980
4184 8133
4184 8841
4184 9861
4184 9918
4185 4577
4185 4917
4185 5008
4185 5433
4185 6717
4185 7102
4185 7255
4185 7690
4185 7696
4185 7710
4185 8754
4185 8847
4185 8941
4186 4429
4186 5539
4186 6320
4186 6444
4186 7408
4186 8166
4186 8375
4186 8683
4186 9074
4186 9277
4186 9526
4186 9697
4187 4264
4187 5453
4187 5556
4187 5694
4187 5847
4187 5977
4187 5979
4187 6326
4187 6549
4187 6687
4187 7034
4187 7072
4187 7081
4187 7135
4187 7282
4187 7284
4187 7438
4187 7530
4187 7718
4187 8354
4187 9295
4187 9334
4187 9537
4187 9690
4188 4691
4188 4833
4188 4847
4188 4915
4188 4993
4188 5573
4188 5772
4188 5928
4188 5951
4188 5984
4188 6971
4188 7370
4188 7522
4188 7797
4188 8037
4188 8705
4188 9088
4188 9160
4188 9516
4188 9657
4188 9692
4188 9846
4188 9938
4189 4271
4189 4543
4189 5315
4189 5463
4189 5632
4189 6157
4189 6390
4189 6601
4189 7070
4189 7280
4189 7568
4189 7683
4189 8187
4189 8564
4189 8914
4189 9163
4189 9580
4189 9641
4190 5100
4190 6875
4190 7961
4190 8318
4190 9805
4190 9924
4191 4405
4191 4481
4191 4657
4191 4996
4191 5350
4191 5352
4191 5965
4191 6464
4191 7308
4191 7494
4191 7647
4191 7980
4191 8005
4191 8548
4191 8599
4191 8706
4191 8890
4191 8922
4191 9011
4191 9068
4191 9290
4191 9434
4191 9502
4191 9607
4191 9928
4191 9941
4192 4428
4192 4444
4192 4555
4192 4779
4192 4804
4192 4815
4192 5277
4192 5870
4192 6275
4192 6349
4192 6419
4192 6920
4192 7262
4192 7315
4192 7596
4192 7789
4192 7853
4192 8277
4192 8593
4192 8699
4192 8870
4192 9158
4192 9902
4192 9994
4193 4829
4193 7485
4193 7792
4193 8014
4193 9880
4194 4313
4194 5296
4194 6302
4194 6516
4194 8372
4194 8760
4194 8891
4194 9750
4195 4861
4195 7317
4195 7440
4195 7472
4195 8424
4195 8895
4195 9895
4196 4203
4196 4433
4196 7501
4196 7586
4196 7603
4196 7886
4196 8191
4196 9408
4196 9711
4197 5590
4197 7316
4197 8002
4197 8263
4197 8268
4197 9599
4197 9804
4197 9879
4197 9945
4198 4333
4198 4518
4198 4550
4198 5210
4198 5854
4198 5955
4198 8032
4198 8075
4198 9117
4198 9235
4199 5311
4199 5338
4199 5708
4199 6064
4199 9160
4199 9248
4200 5238
4200 6286
4200 8044
4200 8312
4200 8333
4200 8496
4200 8722
4200 8972
4201 4471
4201 5639
4201 5886
4201 6640
4201 8158
4201 8924
4201 9101
4202 4956
4202 5278
4202 5793
4202 6040
4202 6168
4202 6740
4202 7024
4202 7100
4202 7913
4202 8131
4202 8512
4202 9540
4202 9903
4203 7313
4203 7458
4203 8325
4203 8346
4203 8399
4203 8746
4203 9839
4204 4927
4204 5118
4204 5131
4204 5198
4204 5287
4204 5468
4204 5865
4204 5970
4204 6156
4204 6366
4204 6437
4204 6578
4204 6661
4204 7227
4204 7457
4204 7697
4204 8188
4204 8429
4204 8461
4204 8504
4204 9023
4204 9266
4204 9410
4204 9445
4204 9671
4204 9729
4204 9844
4204 9891
4205 5606
4205 6109
4205 6779
4205 6894
4205 7022
4205 7898
4205 7936
4205 8065
4205 8658
4205 9632
4205 9785
4206 5153
4206 6194
4206 7220
4206 7672
4206 8228
4206 8759
4206 8951
4207 4330
4207 5561
4207 5686
4207 7046
4207 7066
4207 7287
4207 7378
4207 8071
4207 8097
4207 8313
4207 8553
4207 8618
4207 8932
4208 4602
4208 4887
4208 5259
4208 5534
4208 6257
4208 6729
4208 8904
4209 4691
4209 5152
4209 5257
4209 5821
4209 6059
4209 6368
4209 7440
4209 8044
4209 8150
4209 8819
4209 9942
4210 4847
4210 5502
4210 5547
4210 7003
4210 8016
4210 8031
4210 8460
4210 8668
4210 9131
4211 4593
4211 5007
4211 5162
4211 5438
4211 5546
4211 5675
4211 6430
4211 6478
4211 7341
4211 8827
4211 8990
4211 9550
4212 5322
4212 5393
4212 5404
4212 5464
4212 6005
4212 6327
4212 6402
4212 6425
4212 7023
4212 7507
4212 9144
4212 9583
4213 4577
4213 4967
4213 5630
4213 5845
4213 7139
4213 7255
4213 8208
4213 8759
4213 9208
4213 9509
4214 5338
4214 5433
4214 5683
4214 7311
4214 7480
4214 7987
4214 9649
4214 9779
4215 4502
4215 4766
4215 4789
4215 4831
4215 4992
4215 5719
4215 5756
4215 5762
4215 6295
4215 7131
4215 7787
4215 8722
4215 9978
4216 6060
4216 6657
4216 6891
4216 6979
4216 7867
4216 8428
4216 9839
4217 5789
4217 6645
4217 6947
4217 7894
4217 8190
4217 8811
4217 8854
4217 9067
4217 9681
4218 4581
4218 5076
4218 5321
4218 6034
4218 6201
4218 6375
4218 7308
4218 7873
4218 8970
4218 9329
4218 9640
4219 4238
4219 5333
4219 6228
4219 6770
4220 4567
4220 4670
4220 5063
4220 6201
4220 7105
4220 8074
4220 8585
4221 4951
4221 5196
4221 5480
4221 6108
4221 6368
4221 6629
4221 7429
4221 7709
4221 7832
4221 7927
4221 8230
4221 8284
4221 8885
4221 9337
4221 9456
4221 9983
4222 5513
4222 5964
4222 8176
4222 8892
4222 9657
4223 4541
4223 4883
4223 5027
4223 5511
4223 6047
4223 6152
4223 6286
4223 6288
4223 7059
4223 7300
4223 7870
4223 8312
4223 8886
4223 9651
4223 9938
4224 4333
4224 4356
4224 4749
4224 5523
4224 5919
4224 6088
4224 6673
4224 7454
4224 8025
4224 9250
4225 4838
4225 5417
4225 5538
4225 5610
4225 6146
4225 7285
4225 8522
4225 9314
4225 9507
4226 4302
4226 4588
4226 6472
4226 6793
4226 7712
4226 8157
4227 4524
4227 6359
4227 6949
4227 6984
4227 7216
4227 7497
4227 8049
4227 8178
4227 8543
4227 9339
4227 9753
4228 6159
4228 8603
4228 9124
4229 4340
4229 4708
4229 5980
4229 6573
4229 8470
4229 8728
4229 9001
4229 9352
4230 4349
4230 4729
4230 4836
4230 6378
4230 7795
4230 7810
4230 8075
4230 8409
4230 8796
4231 4249
4231 6198
4231 6503
4231 6568
4231 7481
4231 8244
4231 9249
4232 4842
4232 5775
4232 6804
4232 6884
4232 7341
4232 8816
4232 8882
4233 4797
4233 5023
4233 5617
4233 5712
4233 6747
4233 7045
4233 7463
4233 7837
4233 8170
4233 9378
4234 4573
4234 4728
4234 4839
4234 5703
4234 6005
4234 6225
4234 7238
4234 7969
4234 8023
4234 8492
4234 9052
4235 4735
4235 4865
4235 5033
4235 5035
4235 5172
4235 5420
4235 5447
4235 5487
4235 5498
4235 5554
4235 5759
4235 6656
4235 6970
4235 7266
4235 7664
4235 8045
4235 8090
4235 8102
4235 8211
4235 8537
4235 8862
4235 8936
4235 9108
4235 9125
4235 9162
4235 9403
4235 9820
4236 5440
4236 6532
4236 8558
4236 9122
4236 9140
4236 9252
4236 9980
4237 4861
4237 4963
4237 5633
4237 6004
4237 6168
4237 6414
4237 6581
4237 6921
4237 6962
4237 7964
4237 7974
4237 8225
4237 9921
4238 5333
4238 5748
4238 6770
4238 7160
4238 7289
4238 7442
4238 7445
4238 8387
4238 9362
4238 9902
4239 4654
4239 5684
4239 6126
4239 6453
4239 6625
4239 6941
4239 7471
4239 7939
4239 8316
4239 9857
4240 4352
4240 4636
4240 7398
4240 7426
4240 7771
4240 7952
4240 8224
4240 8613
4240 8751
4240 9061
4240 9325
4240 9364
4240 9577
4240 9582
4240 9965
4241 4446
4241 4635
4241 5531
4241 5919
4241 6022
4241 6160
4241 6328
4241 6443
4241 6752
4241 7283
4241 7578
4241 7773
4241 7944
4241 8130
4241 8405
4241 8996
4241 9010
4241 9567
4241 9667
4241 9934
4242 5921
4242 7253
4242 8962
4243 4379
4243 4835
4243 6495
4243 6516
4243 6730
4243 7001
4243 7201
4243 7968
4243 8388
4243 9873
4244 4887
4244 4912
4244 5235
4244 5399
4244 5569
4244 5789
4244 5819
4244 7166
4244 7782
4244 8431
4244 8568
4244 8837
4244 8854
4244 9067
4244 9404
4244 9692
4245 5252
4245 6331
4245 7493
4245 8356
4245 8372
4245 9202
4246 4344
4246 6616
4246 7172
4246 8583
4246 9092
4246 9500
4247 4416
4247 4624
4247 4699
4247 4834
4247 6204
4247 6272
4247 6941
4247 7424
4247 7505
4247 8089
4248 7250
4248 7733
4248 8049
4248 8886
4248 9434
4248 9826
4249 4643
4249 5367
4249 5638
4249 5715
4249 5737
4249 5957
4249 6348
4249 7009
4249 7081
4249 7604
4249 7791
4249 8026
4249 8907
4249 9524
4249 9544
4250 4726
4250 6946
4250 7455
4250 8654
4250 9241
4250 9316
4251 4252
4251 4451
4251 4593
4251 4633
4251 4697
4251 5781
4251 5804
4251 6147
4251 6768
4251 6860
4251 7308
4251 7496
4251 7953
4251 7972
4251 8392
4251 8464
4251 9750
4252 4524
4252 4787
4252 5201
4252 7216
4252 7893
4252 8026
4252 8152
4252 8412
4252 8762
4253 5501
4253 5693
4253 5711
4253 5803
4253 5881
4253 6026
4253 7776
4253 9594
4253 9857
4254 4632
4254 6068
4254 6604
4254 7333
4254 8148
4254 8626
4254 9737
4255 5235
4255 5676
4255 6418
4255 6916
4255 7466
4255 7930
4255 8648
4255 8931
4255 9088
4255 9200
4256 4691
4256 5444
4256 8167
4256 9454
4256 9604
4256 9731
4257 4607
4257 4730
4257 5623
4257 6328
4257 6406
4257 6758
4257 7577
4257 7922
4257 9014
4257 9166
4257 9321
4258 4786
4258 4908
4258 5032
4258 5051
4258 5403
4258 5528
4258 5796
4258 6074
4258 6181
4258 6329
4258 6642
4258 6709
4258 6873
4258 6910
4258 7436
4258 7506
4258 8688
4258 9126
4258 9200
4258 9414
4258 9591
4258 9601
4258 9676
4258 9785
4259 4510
4259 4838
4259 5382
4259 6367
4259 7180
4259 7285
4259 9187
4259 9767
4260 4917
4260 5513
4260 5873
4260 6454
4260 7130
4260 7566
4260 7703
4260 8040
4260 8515
4260 8732
4260 9315
4261 5198
4261 5947
4261 6604
4261 8186
4261 8501
4261 9381
4261 9804
4261 9861
4262 4286
4262 4760
4262 4764
4262 4807
4262 4973
4262 5117
4262 5307
4262 5765
4262 6171
4262 6451
4262 6471
4262 6694
4262 6758
4262 7008
4262 7727
4262 7811
4262 7993
4262 8288
4262 9105
4262 9336
4262 9354
4263 4281
4263 5717
4263 5723
4263 5797
4263 6310
4263 6492
4263 6688
4263 6724
4263 7009
4263 7122
4263 7321
4263 7902
4263 7954
4263 8094
4263 8150
4263 8538
4263 8746
4263 9012
4263 9056
4263 9329
4263 9811
4263 9981
4264 5690
4264 7485
4264 7817
4264 8808
4265 4378
4265 4811
4265 5583
4265 6655
4265 7464
4265 8984
4265 9104
4266 4368
4266 4519
4266 4618
4266 5675
4266 6561
4266 7096
4266 7110
4266 7295
4266 7804
4266 9003
4267 7030
4267 7812
4267 7889
4267 7951
4267 8821
4267 9913
4267 9981
4268 4333
4268 4600
4268 4962
4268 5197
4268 5486
4268 5653
4268 5959
4268 6318
4268 6336
4268 9168
4268 9652
4268 9809
4269 6265
4269 6514
4269 7392
4269 8561
4269 8656
4269 9932
4270 4777
4270 6311
4270 7757
4270 8096
4270 8781
4270 9006
4270 9017
4270 9135
4270 9542
4271 6104
4271 6531
4271 6852
4271 7954
4271 8262
4271 8541
4271 8931
4271 9360
4272 4641
4272 5480
4272 5611
4272 5655
4272 5943
4272 6745
4272 6816
4272 6964
4272 8717
4272 9598
4273 4750
4273 4946
4273 5291
4273 5311
4273 5795
4273 6202
4273 6253
4273 6377
4273 6816
4273 7197
4273 7473
4273 7499
4273 7655
4273 7662
4273 7785
4273 7903
4273 8471
4273 8478
4273 8576
4273 8721
4273 8839
4274 6653
4274 6682
4274 7380
4274 8882
4274 9090
4274 9206
4274 9298
4275 7036
4275 7275
4275 7702
4275 8422
4275 9903
4276 4326
4276 5673
4276 6524
4276 6715
4276 7617
4276 8013
4276 9478
4277 5066
4277 5174
4277 5307
4277 5900
4277 6941
4277 9979
4278 4771
4278 6057
4278 6175
4278 7473
4278 7870
4278 7889
4278 8262
4279 5121
4279 5440
4279 5586
4279 5876
4279 6306
4279 6564
4279 6715
4279 7215
4279 7406
4279 7442
4279 7700
4279 7908
4279 8178
4279 8388
4279 8701
4279 8742
4279 9229
4280 5803
4280 7095
4280 7118
4280 7256
4280 7785
4280 8236
4280 8713
4280 9671
4281 6163
4281 8110
4281 8506
4281 8728
4281 8849
4281 9212
4281 9865
4282 4518
4282 4696
4282 4782
4282 6425
4282 6661
4282 6948
4282 7073
4282 8863
4282 9187
4283 4678
4283 5359
4283 5664
4283 6213
4283 6508
4283 6690
4283 6701
4283 7364
4283 7581
4283 8346
4283 8739
4283 9128
4283 9149
4283 9218
4284 5015
4284 6303
4284 6307
4284 6406
4284 6593
4284 7439
4284 8178
4284 8265
4284 8603
4284 9044
4284 9109
4284 9312
4284 9858
4285 5112
4285 5370
4285 6393
4285 6468
4285 7762
4285 8288
4285 8406
4285 8927
4285 9308
4286 4615
4286 5295
4286 7192
4286 7240
4287 4976
4287 5749
4287 5818
4287 5899
4287 7213
4287 8125
4287 8288
4287 8461
4287 8722
4287 8998
4287 9749
4288 4956
4288 6259
4288 7720
4288 9093
4288 9272
4289 4339
4289 5292
4289 7764
4289 9370
4290 4942
4290 5096
4290 5553
4290 7732
4290 7803
4290 8046
4290 8674
4290 9939
4291 4541
4291 4703
4291 4965
4291 5751
4291 6153
4291 7714
4291 9806
4292 5345
4292 5604
4292 5687
4292 5980
4292 6748
4292 7505
4292 7935
4292 8755
4292 8880
4292 9069
4292 9975
4293 5287
4293 5553
4293 5716
4293 5945
4293 6282
4293 6304
4293 6380
4293 6692
4293 7450
4293 7628
4293 7679
4293 7688
4293 7806
4293 8087
4293 8491
4293 8538
4293 8571
4293 8764
4293 9328
4293 9483
4293 9784
4293 9809
4293 9894
4293 9978
4294 5238
4294 6321
4294 7917
4294 8448
4295 4410
4295 5174
4295 5198
4295 5496
4295 5585
4295 6210
4295 6323
4295 7120
4295 7807
4295 7844
4295 9060
4295 9697
4295 9903
4296 4951
4296 5155
4296 5292
4296 5309
4296 5480
4296 5543
4296 5692
4296 5738
4296 6184
4296 6368
4296 6514
4296 7167
4296 7258
4296 7351
4296 7488
4296 7827
4296 7832
4296 8348
4296 8372
4296 8594
4296 8753
4296 8778
4296 8851
4296 8885
4296 9081
4296 9197
4296 9302
4296 9498
4296 9824
4296 9983
4297 4688
4297 5490
4297 6005
4297 6490
4297 7483
4297 8573
4297 9247
4297 9388
4298 4465
4298 5257
4298 6618
4298 8317
4298 9541
4299 4878
4299 5007
4299 6196
4299 6525
4299 7052
4299 7606
4299 8037
4299 8157
4299 8835
4300 5585
4300 6004
4300 6556
4300 7021
4300 7074
4300 7848
4300 8041
4300 8627
4300 9013
4300 9406
4301 5508
4301 5586
4301 5730
4301 6518
4301 6973
4301 7059
4301 7402
4301 7816
4301 7922
4301 8251
4301 8872
4301 9229
4302 4419
4302 4547
4302 4766
4302 4902
4302 5252
4302 5627
4302 6173
4302 6246
4302 6287
4302 6318
4302 6479
4302 6964
4302 7041
4302 7159
4302 7354
4302 8230
4302 8526
4302 8756
4302 9512
4302 9536
4302 9594
4302 9602
4302 9691
4302 9725
4303 5908
4303 5979
4303 6468
4303 6560
4303 6694
4303 7484
4303 7716
4303 7749
4303 8188
4303 8517
4303 8656
4303 8840
4304 5615
4304 5944
4304 8765
4304 9254
4304 9450
4305 4611
4305 7264
4305 7516
4305 7806
4305 8012
4305 9059
4305 9486
4305 9848
4306 5017
4306 5467
4306 5798
4306 6075
4306 6390
4306 7482
4307 6274
4307 8557
4307 8877
4307 9655
4308 5069
4308 5570
4308 5693
4308 5709
4308 6274
4308 7239
4308 7388
4308 7495
4308 8293
4308 9210
4308 9502
4309 4405
4309 4914
4309 5397
4309 5594
4309 5749
4309 7082
4309 7281
4309 8081
4309 9444
4309 9669
4309 9899
4310 5500
4310 6555
4310 6851
4310 7746
4310 8006
4310 8039
4310 9137
4310 9481
4311 4408
4311 4618
4311 4920
4311 4970
4311 5782
4311 6619
4311 6950
4311 7437
4311 7797
4311 8340
4311 9667
4312 4914
4312 5056
4312 5109
4312 5440
4312 5470
4312 5500
4312 6355
4312 7652
4312 8286
4312 8524
4312 8746
4312 9117
4312 9851
4312 9937
4313 4370
4313 4808
4313 4888
4313 5296
4313 5613
4313 6181
4313 6516
4313 7992
4313 8232
4313 8760
4314 5961
4314 7052
4314 7289
4314 8849
4314 8886
4314 8975
4314 9139
4314 9436
4314 9718
4315 4659
4315 6158
4315 6696
4315 7698
4315 7797
4315 8427
4315 9086
4316 5103
4316 5334
4316 5687
4316 6297
4316 6488
4316 7127
4316 9503
4316 9992
4317 4881
4317 4913
4317 5209
4317 5552
4317 6388
4317 6850
4317 6922
4317 7292
4317 7356
4317 7895
4317 7974
4317 8451
4317 8813
4317 8988
4317 9010
4317 9760
4318 5717
4318 6403
4318 6475
4318 6517
4318 8809
4318 9248
4318 9797
4318 9918
4319 4357
4319 5151
4319 5364
4319 5435
4319 5752
4319 8004
4319 8174
4320 4353
4320 4938
4320 4942
4320 4972
4320 5311
4320 6364
4320 8404
4320 8472
4321 5603
4321 7406
4321 7487
4321 8242
4322 4368
4322 4545
4322 4921
4322 4938
4322 6093
4322 6494
4322 6511
4322 6533
4322 7387
4322 7878
4322 8884
4323 4408
4323 4429
4323 5307
4323 5451
4323 5482
4323 5505
4323 5603
4323 6398
4323 7132
4323 7295
4323 8804
4323 9248
4323 9267
4324 6228
4324 6293
4324 6484
4324 8038
4324 8227
4325 5158
4325 5550
4325 5757
4325 6850
4325 7415
4325 7471
4325 8138
4325 8860
4325 9867
4326 4640
4326 4769
4326 4966
4326 5073
4326 5180
4326 5335
4326 5346
4326 5408
4326 5697
4326 5726
4326 6001
4326 6421
4326 7030
4326 7600
4326 7885
4326 8066
4326 8674
4326 8737
4326 8870
4326 8963
4326 9419
4326 9531
4326 9647
4326 9719
4327 4627
4327 6143
4327 6214
4327 6569
4327 9919
4328 4356
4328 5059
4328 5572
4328 6492
4328 8064
4328 8485
4328 9231
4329 4753
4329 4771
4329 5117
4329 5181
4329 5728
4329 5774
4329 6169
4329 6657
4329 6797
4329 6804
4329 7037
4329 7131
4329 7168
4329 7723
4329 7846
4329 8474
4329 8516
4329 8893
4329 8911
4329 8976
4329 9191
4329 9412
4329 9432
4329 9484
4330 6208
4330 6619
4330 7021
4330 7274
4330 8097
4330 8271
4330 8637
4330 9605
4330 9620
4331 5928
4331 5933
4331 5983
4331 6026
4331 6228
4331 6249
4331 6516
4331 7146
4331 7582
4331 7811
4331 9816
4331 9820
4332 5583
4332 6012
4332 6319
4332 7471
4332 7854
4332 8580
4332 9485
4332 9659
4333 4403
4333 4493
4333 4831
4333 4952
4333 5028
4333 5076
4333 5199
4333 5495
4333 5926
4333 5963
4333 6038
4333 6335
4333 6558
4333 6811
4333 7235
4333 7518
4333 7553
4333 8250
4333 9313
4333 9314
4333 9740
4334 4947
4334 5818
4334 5957
4334 6183
4334 7202
4334 7761
4334 8026
4334 8637
4334 8845
4334 9120
4334 9565
4334 9624
4335 6228
4335 6475
4335 7041
4335 7620
4335 7980
4336 5123
4336 5538
4336 5687
4336 5873
4336 6245
4336 6375
4336 7085
4336 7650
4336 7721
4337 4720
4337 4772
4337 5697
4337 6026
4337 6563
4337 6774
4337 6965
4337 7406
4337 8464
4337 9735
4337 9874
4338 4626
4338 4719
4338 4825
4338 5010
4338 5640
4338 5691
4338 5988
4338 7548
4338 7795
4338 7898
4338 8211
4338 8438
4339 4812
4339 5554
4339 5983
4339 6001
4339 6345
4339 6573
4339 7414
4339 7833
4339 8484
4339 8778
4339 9807
4339 9992
4340 4654
4340 5827
4340 6310
4340 6580
4340 7094
4340 7801
4340 8470
4340 9796
4340 9800
4341 5174
4341 5273
4341 5689
4341 5837
4341 7610
4341 8041
4341 9686
4341 9778
4341 9857
4342 5801
4342 5932
4342 5999
4342 6255
4342 6297
4342 6515
4342 8073
4342 8994
4342 9044
4343 4618
4343 5215
4343 6554
4343 6561
4343 7096
4343 7295
4343 8190
4344 5799
4344 6020
4344 6251
4344 7465
4344 7679
4344 8093
4344 8432
4344 9054
4344 9885
4345 4868
4345 5084
4345 6232
4345 6667
4345 7091
4345 7136
4345 7166
4345 7334
4345 7482
4345 7748
4345 8043
4345 8514
4345 9215
4345 9681
4345 9876
4345 9903
4346 5242
4346 5549
4346 6163
4346 7689
4346 9356
4346 9501
4346 9985
4347 4460
4347 4507
4347 5058
4347 7714
4347 8379
4347 8553
4348 4569
4348 4815
4348 5808
4348 6555
4348 6861
4348 7255
4348 7920
4348 9715
4349 4861
4349 5616
4349 6622
4349 6923
4349 7691
4349 8179
4349 8453
4349 9654
4349 9662
4350 4618
4350 5505
4350 6543
4350 7096
4350 7117
4350 7336
4351 4747
4351 4897
4351 5126
4351 5289
4351 5816
4351 6393
4351 6972
4351 7977
4351 8191
4351 8318
4351 8762
4351 8790
4351 9582
4351 9632
4351 9832
4352 4461
4352 4481
4352 4879
4352 5385
4352 5967
4352 5971
4352 5979
4352 6946
4352 7518
4352 7624
4352 8080
4352 8130
4352 8230
4352 8421
4352 9406
4352 9437
4352 9477
4352 9793
4353 4490
4353 4846
4353 7753
4353 8075
4353 8287
4353 8818
4353 9146
4354 4960
4354 5069
4354 7802
4354 7858
4354 9049
4354 9146
4354 9815
4355 4442
4355 5151
4355 8690
4355 9118
4355 9140
4356 4557
4356 5132
4356 5149
4356 5320
4356 5452
4356 5455
4356 5523
4356 5661
4356 5810
4356 6414
4356 6594
4356 6713
4356 6823
4356 7143
4356 7331
4356 7687
4356 7746
4356 8059
4356 8226
4356 8484
4356 9265
4356 9393
4356 9735
4357 4573
4357 4612
4357 4711
4357 4917
4357 5364
4357 5435
4357 5486
4357 5752
4357 6134
4357 6575
4357 6659
4357 6729
4357 6815
4357 7073
4357 7217
4357 7475
4357 7597
4357 8084
4357 8132
4357 8327
4357 8691
4357 8839
4357 8952
4357 8956
4357 9016
4357 9320
4358 5406
4358 5649
4358 5697
4358 8420
4358 8511
4359 4699
4359 4717
4359 4886
4359 6905
4359 7002
4359 7027
4359 7289
4359 7882
4359 7956
4359 8480
4359 9042
4359 9843
4359 9973
4360 4602
4360 4857
4360 4913
4360 5226
4360 7245
4360 7607
4360 7817
4360 7993
4360 8100
4360 9162
4361 5061
4361 5354
4361 5503
4361 7478
4361 8480
4361 8792
4361 9553
4361 9913
4362 5199
4362 5449
4362 5857
4362 6499
4362 7148
4362 7844
4362 8729
4362 8796
4362 8933
4363 4427
4363 6727
4363 8979
4363 9561
4363 9775
4364 4916
4364 5432
4364 5729
4364 7183
4364 8219
4364 8338
4365 4680
4365 5042
4365 5445
4365 5560
4365 6270
4365 6430
4365 6807
4365 7689
4365 8072
4365 8392
4365 9736
4366 6063
4366 6639
4366 6875
4366 7922
4366 7961
4366 9374
4366 9429
4366 9670
4366 9868
4367 4884
4367 5436
4367 6343
4367 6555
4367 7236
4367 7482
4367 7920
4368 5018
4368 6705
4368 9018
4368 9054
4368 9597
4369 4857
4369 4930
4369 5655
4369 6166
4369 6385
4369 7614
4369 7737
4369 7774
4369 7919
4369 8712
4369 8815
4369 8868
4369 8892
4369 9226
4370 4749
4370 5296
4370 6516
4370 8760
4370 8942
4370 9295
4370 9416
4371 4533
4371 6264
4371 8603
4371 8661
4371 9509
4371 9571
4372 4937
4372 5615
4372 6753
4372 8405
4372 8994
4372 9522
4372 9902
4372 9908
4372 9945
4373 5667
4373 5717
4373 6105
4373 6909
4373 7059
4373 8436
4373 8782
4373 8814
4373 8946
4374 5496
4374 5745
4374 6041
4374 8304
4374 9093
4375 4467
4375 4493
4375 4501
4375 4628
4375 5246
4375 5596
4375 5858
4375 6012
4375 6671
4375 8432
4375 8890
4375 8900
4375 9036
4375 9399
4375 9531
4376 4405
4376 5122
4376 5137
4376 6418
4376 6544
4376 7322
4376 7389
4376 7478
4376 7742
4376 7965
4376 8101
4376 8185
4376 8280
4376 8293
4376 8366
4376 8456
4376 8502
4376 8732
4376 9494
4376 9500
4376 9518
4376 9529
4376 9629
4377 4747
4377 4908
4377 4956
4377 5257
4377 5269
4377 5519
4377 5650
4377 6161
4377 6246
4377 6350
4377 6658
4377 7377
4377 7829
4377 7931
4377 8133
4377 9243
4378 4804
4378 4852
4378 5673
4378 5847
4378 6311
4378 6439
4378 6802
4378 6833
4378 7156
4378 7323
4378 8163
4378 8820
4378 9675
4379 5231
4379 6351
4379 6364
4379 6810
4379 8133
4379 8264
4379 9918
4380 5450
4380 5668
4380 5689
4380 6046
4380 6047
4380 6064
4380 8272
4381 4878
4381 5321
4381 5344
4381 5697
4381 6361
4381 6573
4381 7322
4381 7784
4381 8540
4381 8967
4381 9010
4381 9153
4381 9753
4382 4536
4382 5313
4382 5979
4382 6120
4382 7253
4382 7722
4382 8385
4383 4723
4383 4795
4383 4959
4383 5224
4383 5365
4383 5674
4383 5894
4383 6011
4383 6555
4383 6920
4383 7085
4383 7266
4383 8284
4383 8306
4383 8610
4383 8631
4383 8664
4383 8864
4383 9926
4383 9991
4384 4970
4384 5938
4384 6309
4384 6689
4384 7252
4384 8579
4384 8705
4384 9557
4384 9862
4385 5061
4385 6424
4385 7461
4385 7468
4385 8307
4385 9149
4386 4867
4386 6384
4386 8564
4386 8603
4386 9121
4386 9485
4387 4462
4387 4794
4387 4933
4387 5513
4387 6358
4387 6988
4387 7849
4387 7861
4387 8844
4387 9439
4387 9480
4388 4410
4388 4526
4388 5700
4388 7219
4388 7388
4388 8410
4389 4766
4389 6135
4389 6181
4389 6296
4389 6466
4389 6559
4389 6750
4389 7281
4389 8314
4390 5761
4390 6364
4390 6419
4390 7861
4390 8211
4390 8943
4390 9015
4391 4918
4391 5264
4391 5568
4391 5616
4391 6028
4391 6578
4391 7612
4391 7677
4391 8377
4391 8657
4391 8814
4392 5253
4392 6190
4392 7949
4392 8807
4392 9608
4392 9811
4393 5007
4393 5128
4393 5272
4393 6470
4393 6739
4393 7276
4393 8007
4393 8188
4393 9214
4394 6084
4394 8379
4394 8400
4394 9018
4394 9031
4394 9756
4395 4667
4395 4699
4395 4703
4395 4868
4395 4964
4395 5213
4395 5882
4395 6084
4395 6184
4395 6232
4395 9876
4396 4890
4396 5054
4396 5319
4396 5641
4396 6257
4396 6771
4396 6966
4396 7219
4396 7954
4396 8033
4396 9657
4396 9672
4397 4607
4397 4771
4397 4867
4397 5730
4397 6364
4397 7052
4397 7482
4397 7649
4397 7828
4397 8214
4397 8459
4397 8658
4397 9007
4398 4935
4398 5577
4398 5693
4398 5857
4398 6232
4398 6331
4398 6597
4398 7458
4398 7461
4398 7900
4398 8156
4398 8656
4398 8991
4398 9705
4399 4678
4399 7320
4399 7539
4399 7853
4399 7964
4399 8207
4399 8768
4399 9478
4400 6210
4400 6468
4400 7040
4400 7228
4400 7497
4400 8250
4400 8351
4400 8452
4400 9048
4400 9480
4400 9620
4400 9890
4401 5076
4401 5742
4401 6796
4401 7100
4401 7227
4401 7307
4401 7879
4401 7921
4401 8306
4401 8806
4401 8994
4401 9375
4401 9670
4402 4654
4402 4964
4402 6653
4402 6736
4402 7281
4402 8099
4402 9013
4402 9180
4402 9204
4402 9220
4402 9584
4403 4493
4403 4807
4403 5028
4403 5926
4403 6026
4403 6289
4403 6521
4403 6636
4403 8390
4403 8639
4403 8714
4403 9313
4404 4676
4404 6956
4404 7163
4404 7182
4404 7611
4404 8087
4404 8498
4404 8581
4404 8969
4404 9298
4404 9614
4404 9890
4405 4568
4405 4747
4405 6562
4405 6675
4405 6677
4405 6795
4405 6886
4405 6982
4405 7375
4405 7389
4405 7580
4405 7801
4405 7934
4405 8007
4405 8101
4405 8510
4405 9109
4405 9136
4405 9445
4405 9488
4405 9529
4405 9610
4405 9621
4405 9629
4405 9746
4406 4541
4406 4599
4406 4684
4406 5606
4406 5631
4406 6128
4406 8409
4407 4878
4407 4934
4407 5756
4407 7109
4407 7119
4407 7802
4407 7967
4407 8037
4407 8576
4407 8814
4407 9263
4407 9468
4408 4920
4408 4970
4408 5159
4408 6350
4408 6950
4408 6986
4408 7437
4408 7797
4408 7918
4408 8230
4408 8282
4408 8575
4408 9667
4409 4868
4409 5049
4409 5235
4409 5538
4409 5621
4409 6232
4409 6595
4409 7248
4409 7254
4409 7519
4409 7578
4409 7834
4409 7972
4409 8474
4409 8677
4409 8897
4409 8930
4409 8931
4409 9028
4409 9301
4409 9335
4409 9377
4409 9699
4409 9766
4410 4493
4410 4801
4410 4973
4410 5012
4410 5192
4410 5385
4410 5438
4410 5647
4410 6042
4410 6054
4410 6115
4410 6176
4410 6478
4410 6488
4410 7154
4410 7225
4410 7364
4410 7365
4410 8146
4410 8312
4410 8525
4410 8543
4410 8592
4410 8792
4410 9343
4410 9364
4410 9398
4410 9424
4411 5068
4411 5687
4411 6047
4411 6262
4411 7006
4411 7224
4411 7573
4411 8976
4411 9091
4411 9541
4411 9805
4411 9882
4412 4651
4412 5040
4412 5159
4412 5820
4412 6154
4412 6277
4412 7595
4412 7936
4412 8646
4412 9271
4412 9584
4412 9680
4413 4563
4413 4918
4413 6897
4413 6977
4413 8306
4413 9011
4413 9398
4413 9851
4414 5133
4414 5516
4414 5873
4414 6161
4414 7556
4414 7606
4414 8383
4414 8428
4415 5080
4415 7108
4415 7476
4415 8570
4415 8852
4416 4515
4416 4723
4416 5162
4416 5280
4416 5405
4416 6640
4416 7019
4416 7635
4416 8417
4416 8434
4416 8918
4416 9036
4416 9318
4416 9516
4416 9988
4417 4630
4417 4932
4417 5874
4417 6959
4417 7342
4417 7923
4417 8245
4417 8494
4417 8554
4417 8900
4417 9355
4417 9555
4418 5190
4418 5296
4418 5524
4418 5665
4418 5680
4418 5695
4418 5697
4418 5804
4418 5887
4418 6540
4418 6593
4418 6878
4418 7676
4418 8421
4418 8627
4418 9760
4419 4551
4419 4902
4419 5972
4419 6067
4419 6246
4419 8230
4419 9906
4420 4807
4420 5581
4420 5830
4420 6540
4420 6944
4420 7156
4420 7819
4420 7873
4420 7930
4420 8738
4420 9894
4420 9978
4421 4485
4421 4808
4421 5184
4421 5845
4421 9823
4422 5265
4422 6876
4422 6918
4422 7025
4422 7602
4422 7609
4422 8191
4422 8237
4422 8647
4422 8721
4422 9594
4422 9893
4423 4424
4423 6190
4423 6565
4423 7308
4423 7817
4423 8102
4423 9345
4423 9453
4423 9455
4424 4930
4424 5419
4424 5735
4424 6385
4424 6870
4424 7737
4424 8712
4424 8809
4424 8868
4424 8914
4424 9622
4425 4590
4425 4905
4425 5360
4425 7709
4425 9170
4426 5476
4426 5725
4426 6100
4426 7738
4426 7795
4426 7896
4426 9154
4426 9445
4427 4722
4427 5376
4427 5765
4427 5986
4427 6654
4427 6707
4427 6809
4427 7029
4427 7102
4427 8639
4427 8915
4428 4554
4428 4646
4428 5104
4428 5328
4428 6506
4428 7172
4428 7213
4428 7434
4428 9637
4428 9666
4428 9934
4429 4461
4429 4513
4429 4600
4429 4891
4429 5395
4429 6559
4429 6931
4429 7297
4429 7930
4429 7949
4429 8057
4429 8142
4429 8203
4429 8422
4429 9009
4429 9124
4429 9159
4429 9506
4429 9923
4430 5866
4430 5919
4430 6247
4430 6398
4430 7881
4430 9141
4431 4571
4431 4795
4431 4875
4431 5752
4431 7172
4431 7545
4431 8403
4431 8435
4432 4600
4432 5354
4432 5553
4432 7844
4432 8136
4432 8567
4433 5455
4433 5756
4433 6085
4433 7220
4434 5351
4434 6800
4434 6859
4434 7851
4434 7885
4434 8486
4434 8822
4434 9075
4434 9914
4435 5130
4435 5455
4435 6444
4435 7553
4435 8225
4435 8311
4435 8680
4436 4932
4436 4959
4436 5374
4436 5416
4436 5824
4436 6582
4436 7382
4436 7456
4436 7607
4436 7690
4436 8022
4436 8417
4436 8487
4436 8684
4436 9210
4436 9325
4436 9339
4436 9634
4436 9910
4436 9985
4437 4471
4437 4603
4437 5030
4437 5048
4437 5773
4437 6633
4437 6856
4437 6916
4437 7674
4437 8699
4437 9145
4438 4503
4438 4681
4438 5246
4438 5611
4438 5822
4438 5886
4438 6393
4438 7221
4438 8339
4438 8682
4438 9001
4438 9100
4439 4912
4439 5090
4439 6906
4439 7375
4439 7862
4439 8333
4439 9111
4439 9640
4439 9938
4440 4785
4440 4889
4440 5757
4440 8419
4440 9185
4441 5281
4441 5426
4441 5546
4441 6088
4441 6157
4441 6384
4441 6524
4441 7430
4441 8042
4441 8071
4441 8260
4441 8560
4441 9374
4441 9534
4441 9778
4442 4615
4442 4946
4442 5747
4442 5773
4442 5915
4442 5982
4442 6491
4442 6629
4442 6884
4442 7870
4442 8059
4442 8083
4442 8092
4442 8405
4442 8639
4442 8915
4443 5380
4443 6783
4443 7852
4443 8189
4443 9555
4444 4479
4444 5120
4444 7361
4444 8039
4444 8276
4444 8310
4444 9622
4445 4600
4445 6329
4445 6614
4445 7508
4445 7618
4445 7692
4445 8144
4445 8742
4445 9337
4445 9656
4445 9866
4445 9958
4446 6055
4446 7142
4446 7734
4446 7967
4446 9060
4446 9593
4447 5673
4447 5810
4447 7547
4447 7870
4447 7980
4447 8313
4447 9440
4448 5097
4448 5858
4448 8323
4448 8716
4448 9430
4449 5093
4449 5945
4449 6445
4449 7285
4449 8294
4449 8601
4449 9773
4450 5061
4450 6033
4450 7206
4450 7539
4450 7733
4450 8050
4450 8310
4450 8660
4450 9198
4450 9199
4450 9435
4450 9519
4450 9665
4450 9784
4451 6936
4451 7318
4451 7574
4451 8392
4451 9116
4451 9856
4452 5174
4452 5195
4452 6038
4452 6236
4452 7954
4452 8516
4452 8784
4452 9151
4452 9314
4452 9548
4453 4837
4453 4874
4453 5332
4453 5503
4453 6364
4453 6475
4453 6923
4453 8227
4453 8395
4453 8488
4453 8939
4453 9672
4454 4703
4454 5272
4454 5700
4454 5801
4454 6231
4454 6626
4454 7005
4454 7080
4454 7729
4454 8287
4454 8289
4454 8730
4454 9480
4455 4658
4455 5743
4455 5774
4455 6035
4455 6438
4455 6480
4455 6648
4455 7915
4455 7987
4455 9306
4455 9469
4456 7260
4456 7823
4456 9454
4456 9731
4457 4619
4457 6510
4457 7515
4457 8203
4457 8489
4457 8918
4458 6023
4458 6393
4458 8818
4458 9342
4459 6864
4459 7050
4459 7515
4459 8980
4459 9032
4459 9844
4460 5654
4460 5949
4460 6087
4460 6817
4460 6837
4460 6959
4460 7372
4460 8667
4460 9035
4461 4513
4461 4565
4461 4603
4461 4865
4461 5395
4461 5545
4461 5649
4461 5796
4461 6199
4461 7377
4461 7391
4461 7468
4461 7567
4461 7662
4461 7868
4461 8133
4461 8203
4461 9009
4461 9012
4461 9497
4461 9760
4461 9820
4462 4666
4462 4857
4462 4930
4462 4962
4462 5851
4462 6448
4462 6507
4462 7032
4462 7420
4462 7462
4462 7781
4462 8052
4462 8336
4462 8342
4462 8362
4462 8611
4462 8781
4462 8872
4462 8894
4462 9234
4462 9339
4462 9718
4462 9907
4463 4550
4463 5889
4463 5907
4463 6190
4463 6909
4463 7015
4463 7854
4463 8188
4463 9522
4463 9877
4464 4763
4464 6744
4464 7898
4464 8393
4464 8836
4464 9816
4465 4698
4465 5195
4465 5257
4465 7775
4465 8317
4465 9123
4465 9646
4466 5195
4466 6668
4466 6800
4466 7062
4466 7272
4466 8481
4466 9116
4466 9520
4466 9996
4467 4589
4467 4798
4467 5162
4467 5480
4467 5734
4467 5962
4467 6515
4467 6671
4467 7230
4467 7380
4467 7505
4467 7747
4467 8682
4467 8818
4467 9136
4467 9586
4467 9672
4468 4940
4468 6483
4468 8344
4468 8554
4468 8718
4468 8808
4468 9143
4468 9716
4469 4629
4469 4703
4469 5169
4469 5886
4469 6041
4469 6079
4469 6782
4469 8506
4469 9106
4470 4570
4470 4587
4470 4680
4470 5042
4470 5059
4470 5119
4470 5280
4470 5428
4470 5635
4470 6192
4470 6248
4470 6427
4470 6544
4470 6703
4470 7075
4470 7209
4470 7899
4470 7924
4470 8833
4470 9451
4470 9631
4470 9839
4471 5641
4471 5785
4471 7014
4471 8034
4471 8465
4471 8570
4471 8971
4471 9931
4472 5660
4472 6225
4472 6267
4472 6534
4472 6689
4472 7094
4472 8048
4472 8432
4472 8645
4472 8649
4472 9443
4472 9480
4472 9644
4472 9908
4473 4492
4473 4504
4473 4638
4473 4649
4473 5783
4473 6525
4473 6877
4473 6919
4473 7258
4473 8237
4473 8482
4473 8742
4473 9509
4473 9731
4473 9922
4474 5764
4474 6713
4474 7650
4474 7910
4474 8440
4474 8718
4474 9211
4474 9536
4474 9799
4475 4781
4475 5269
4475 5441
4475 6088
4475 6432
4475 6497
4475 7461
4475 8620
4475 9022
4476 4633
4476 5123
4476 5380
4476 6001
4476 6229
4476 7852
4476 9025
4476 9555
4476 9614
4476 9665
4476 9919
4476 9947
4477 5415
4477 5737
4477 6476
4477 7236
4477 7497
4477 8729
4477 9371
4477 9631
4478 5774
4478 6802
4478 7512
4478 8115
4478 8669
4478 8839
4479 4822
4479 5234
4479 5658
4479 5762
4479 5981
4479 6595
4479 6670
4479 6832
4479 7295
4479 7744
4479 8033
4479 8092
4479 8576
4479 8610
4479 8809
4479 9430
4479 9763
4479 9879
4479 9969
4480 5574
4480 5679
4480 6047
4480 6687
4480 7443
4480 8213
4480 9183
4481 4663
4481 5124
4481 5735
4481 6065
4481 6537
4481 6719
4481 6757
4481 7888
4481 8904
4481 9017
4481 9269
4482 5543
4482 6769
4482 7486
4482 7536
4482 8117
4482 8349
4482 8574
4482 8846
4483 4575
4483 5074
4483 5310
4483 5744
4483 5928
4483 6314
4483 6333
4483 7455
4483 7482
4483 8001
4483 8026
4483 8047
4483 8493
4484 5540
4484 7103
4484 7795
4484 7950
4484 8066
4484 8243
4484 8669
4485 4871
4485 5098
4485 5594
4485 5745
4485 7585
4485 7750
4485 8460
4485 8823
4485 9474
4486 4666
4486 4716
4486 4740
4486 5754
4486 6083
4486 6323
4486 6777
4486 6972
4486 7191
4486 7540
4486 7973
4486 8886
4487 4688
4487 5076
4487 5247
4487 7162
4487 7958
4487 8019
4487 8047
4487 8599
4487 8641
4488 5273
4488 5336
4488 6042
4488 8454
4488 8563
4488 9307
4488 9367
4488 9842
4489 4811
4489 5342
4489 5491
4489 6538
4489 6634
4489 6825
4489 7029
4489 7199
4489 7528
4489 7589
4489 7981
4489 8419
4489 9165
4489 9231
4490 4604
4490 4756
4490 4868
4490 4950
4490 5038
4490 5114
4490 5183
4490 5303
4490 5533
4490 5632
4490 5764
4490 6965
4490 7200
4490 7269
4490 7518
4490 7741
4490 8012
4490 8096
4490 8259
4490 8394
4490 8645
4490 8873
4490 8936
4490 8953
4490 9143
4490 9146
4491 4667
4491 5764
4491 5788
4491 6286
4491 6922
4491 8121
4491 8564
4491 8718
4491 8779
4491 9536
4491 9743
4492 4504
4492 6525
4492 7075
4492 7327
4492 7852
4492 9849
4493 4633
4493 5926
4493 6068
4493 6280
4493 6325
4493 9313
4494 4892
4494 5998
4494 6150
4494 6364
4494 6846
4494 7784
4494 7882
4494 7995
4495 4846
4495 5530
4495 6302
4495 6352
4495 6465
4495 8893
4495 9356
4495 9938
4496 4909
4496 5433
4496 5792
4496 5802
4496 6352
4496 7026
4496 7311
4496 7835
4496 8454
4496 8465
4496 8966
4496 9647
4497 5150
4497 6128
4497 6639
4497 7699
4497 8532
4497 9974
4498 5651
4498 6677
4498 7113
4498 7208
4498 7667
4498 7679
4498 7887
4498 8300
4498 9161
4498 9208
4499 4567
4499 5154
4499 6076
4499 6485
4499 7165
4499 8753
4499 9231
4499 9586
4500 5483
4500 7063
4500 8869
4500 9064
4500 9273
4501 4616
4501 6671
4501 6788
4502 4535
4502 5761
4502 6005
4502 6313
4502 6410
4502 6911
4502 7007
4502 7019
4502 7158
4502 7748
4502 8057
4502 8117
4502 8217
4502 8475
4502 8543
4502 9412
4502 9872
4503 5199
4503 5225
4503 5347
4503 6138
4503 6189
4503 6562
4503 7524
4503 7582
4503 8075
4503 8158
4503 8271
4503 8484
4504 4609
4504 4830
4504 5466
4504 6525
4504 7095
4504 7774
4504 9922
4505 4704
4505 4913
4505 5710
4505 5855
4505 5903
4505 5924
4505 6373
4505 6585
4505 6712
4505 7238
4505 7650
4505 8140
4505 8318
4505 9364
4505 9771
4506 5151
4506 5294
4506 5597
4506 5782
4506 6547
4506 7732
4506 8013
4506 8273
4506 9076
4506 9585
4507 6226
4507 6583
4507 7816
4507 8141
4507 8299
4507 8379
4507 8456
4507 8553
4507 8958
4507 9302
4507 9672
4507 9888
4508 6319
4508 6423
4508 6970
4508 8516
4508 8564
4508 9485
4509 5139
4509 6166
4509 7055
4509 7154
4509 7230
4509 8018
4509 8334
4509 8574
4509 8870
4509 9068
4509 9240
4509 9357
4510 4838
4510 5085
4510 5235
4510 5417
4510 5610
4510 6540
4510 7285
4510 7378
4510 8223
4510 8818
4510 8878
4510 9366
4510 9398
4511 5226
4511 5536
4511 5694
4511 6467
4511 7077
4511 8105
4511 8737
4511 8819
4511 8835
4511 8986
4511 9304
4512 4900
4512 6095
4512 6486
4512 6780
4512 7351
4512 7424
4512 7862
4512 8005
4512 8070
4512 8079
4512 8594
4513 5808
4513 5969
4513 6115
4513 6292
4513 7756
4513 8203
4513 8777
4513 8870
4513 9009
4513 9157
4514 5223
4514 5450
4514 5793
4514 6705
4514 9054
4514 9435
4514 9610
4514 9996
4515 4517
4515 4653
4515 6082
4515 6262
4515 6761
4515 6946
4515 8783
4515 9276
4515 9317
4515 9466
4516 4699
4516 4810
4516 5113
4516 5419
4516 5801
4516 6076
4516 6280
4516 6589
4516 9098
4517 5277
4517 5808
4517 6185
4517 7362
4517 7964
4517 8125
4518 5824
4518 5955
4518 6006
4518 6306
4518 6396
4518 6677
4518 7837
4518 7949
4518 8389
4518 8435
4518 8489
4518 9235
4518 9360
4518 9729
4518 9781
4519 6084
4519 6482
4519 6609
4519 7140
4519 7210
4519 8970
4519 9881
4520 4583
4520 5043
4520 5094
4520 5116
4520 5165
4520 5675
4520 5820
4520 5937
4520 6399
4520 6559
4520 6607
4520 6926
4520 8137
4520 8614
4520 8902
4520 9133
4520 9442
4520 9690
4520 9705
4521 5480
4521 5486
4521 5897
4521 7014
4521 8885
4521 9117
4521 9180
4522 4589
4522 5614
4522 6053
4522 6631
4522 7178
4522 7806
4522 7903
4522 8749
4522 9173
4522 9544
4522 9637
4523 5075
4523 5391
4523 5795
4523 7220
4523 7429
4523 8307
4523 8834
4524 5658
4524 6359
4524 7216
4524 7498
4524 8859
4524 9653
4524 9857
4524 9915
4525 4582
4525 5320
4525 5567
4525 5891
4525 5979
4525 6786
4525 8034
4525 8272
4525 8361
4525 8565
4525 9152
4525 9351
4526 5502
4526 5652
4526 5954
4526 5970
4526 8007
4526 9103
4526 9858
4526 9931
4527 4705
4527 4944
4527 5820
4527 6146
4527 6449
4527 7618
4527 7640
4527 8543
4527 8646
4527 9289
4527 9301
4527 9663
4528 5227
4528 5413
4528 5919
4528 6681
4528 6971
4528 7429
4528 9252
4528 9373
4528 9762
4528 9873
4528 9971
4529 4788
4529 5145
4530 5134
4530 5136
4530 5188
4530 5580
4530 6621
4530 7142
4530 8386
4531 5031
4531 6378
4531 7777
4531 8318
4531 8804
4531 8832
4531 9013
4531 9735
4532 4921
4532 5659
4532 6271
4532 7154
4532 7170
4532 7609
4532 8018
4532 8024
4533 4945
4533 5233
4533 5273
4533 5314
4533 5610
4533 5677
4533 5980
4533 5993
4533 6119
4533 6448
4533 6512
4533 7401
4533 7424
4533 7493
4533 7601
4533 7638
4533 8372
4533 8427
4533 8460
4533 8661
4533 9496
4534 4557
4534 4638
4534 5169
4534 5400
4534 6177
4534 6846
4534 7794
4534 8031
4534 8406
4534 8565
4534 8681
4534 8768
4534 9013
4535 5922
4535 6482
4535 7748
4535 8217
4535 9612
4536 5189
4536 5313
4536 5557
4536 5582
4536 5790
4536 6120
4536 6420
4536 7178
4536 7763
4536 7910
4536 7926
4536 8216
4536 8368
4536 8548
4536 8818
4536 9248
4536 9649
4536 9835
4536 9872
4537 5002
4537 5145
4537 6270
4537 6745
4537 6801
4537 7410
4537 9256
4538 4623
4538 5462
4538 5466
4538 5751
4538 5878
4538 5899
4538 6609
4538 6726
4538 7409
4538 7626
4538 8094
4538 8962
4538 9455
4538 9732
4538 9747
4538 9842
4538 9976
4539 4881
4539 4912
4539 6467
4539 6705
4539 6933
4539 8225
4539 8564
4539 9667
4539 9681
4539 9863
4540 6152
4540 6880
4540 7105
4540 7611
4540 8302
4540 9404
4540 9484
4540 9736
4541 4619
4541 4775
4541 4797
4541 5163
4541 5212
4541 5302
4541 5640
4541 6406
4541 6491
4541 6747
4541 7196
4541 7418
4541 7789
4541 8011
4541 8401
4541 8543
4541 8876
4541 9215
4541 9885
4541 9933
4541 9976
4542 4781
4542 4791
4542 6900
4542 7266
4542 7990
4542 8701
4542 9162
4542 9541
4543 5076
4543 6020
4543 8521
4543 8852
4543 9092
4543 9225
4543 9320
4543 9482
4543 9916
4544 5189
4544 6730
4544 7800
4544 8356
4544 9481
4545 5267
4545 5294
4545 6093
4545 6511
4545 6544
4545 6847
4545 7878
4545 8969
4545 8998
4546 5174
4546 5185
4546 5306
4546 5450
4546 5526
4546 6246
4546 6423
4547 5420
4547 6435
4547 7256
4547 7861
4547 8126
4547 9203
4548 4864
4548 5127
4548 5196
4548 6015
4548 7226
4548 7329
4548 7523
4548 9099
4549 6468
4549 6759
4549 7341
4549 8394
4549 9241
4550 4768
4550 4782
4550 5193
4550 5422
4550 5541
4550 5816
4550 5840
4550 5895
4550 6198
4550 6551
4550 6682
4550 7493
4550 7789
4550 7799
4550 7954
4550 8059
4550 8102
4550 8170
4550 8552
4550 8694
4550 9343
4550 9581
4551 5199
4551 5491
4551 5704
4551 5901
4551 6058
4551 6064
4551 6128
4551 6816
4551 7085
4551 7189
4551 7283
4551 7495
4551 7576
4551 7621
4551 8441
4551 8661
4551 8668
4551 9026
4551 9090
4551 9129
4551 9958
4552 4867
4552 5802
4552 5910
4552 6740
4552 7977
4552 8587
4552 9007
4552 9316
4552 9445
4553 4741
4553 5028
4553 5300
4553 5662
4553 6745
4553 6910
4553 7126
4553 7390
4553 7487
4553 8657
4553 9633
4553 9942
4554 4744
4554 5324
4554 7213
4554 7647
4554 8174
4554 8233
4554 8780
4554 9591
4554 9637
4555 5011
4555 5044
4555 5646
4556 4666
4556 4851
4556 4977
4556 6129
4556 6228
4556 6547
4556 6937
4556 8089
4556 8155
4556 8660
4556 9550
4557 5015
4557 7571
4557 8413
4558 4951
4558 5150
4558 5219
4558 5282
4558 7053
4558 7218
4558 8153
4558 8848
4558 9423
4559 5024
4559 6546
4559 7460
4559 7525
4559 8172
4560 5236
4560 5343
4560 5382
4560 7602
4560 7995
4560 8710
4560 9136
4560 9392
4560 9648
4561 7166
4561 7424
4561 7486
4561 7536
4561 8574
4561 8846
4561 9122
4561 9978
4562 4984
4562 5879
4562 6106
4562 6985
4562 7082
4562 7802
4562 8375
4562 9296
4562 9306
4563 5415
4563 6449
4563 8143
4563 8172
4563 8188
4563 8300
4563 8736
4563 9013
4564 5765
4564 6554
4564 6720
4564 7162
4564 7234
4564 7253
4564 7817
4565 4726
4565 7202
4565 7650
4565 8327
4565 8555
4565 9335
4566 4749
4566 5692
4566 7390
4566 7462
4566 7810
4566 7962
4567 4633
4567 4726
4567 4833
4567 5210
4567 5809
4567 5894
4567 6097
4567 6175
4567 6262
4567 6524
4567 6826
4567 6855
4567 7149
4567 7182
4567 8264
4567 8559
4567 8590
4567 9524
4568 5712
4568 5766
4568 6005
4568 6107
4568 6235
4568 7860
4568 8227
4568 9481
4569 5233
4569 6544
4569 6571
4569 6693
4569 8530
4569 9466
4570 4703
4570 5169
4570 6315
4570 6430
4570 6782
4570 7037
4570 7958
4570 9176
4570 9190
4570 9486
4570 9988
4571 4637
4571 4910
4571 6554
4571 7172
4571 8001
4571 8134
4571 9857
4572 4921
4572 5406
4572 6268
4572 6294
4572 6302
4572 8115
4572 8832
4572 9980
4573 4639
4573 4640
4573 4691
4573 4806
4573 5020
4573 5095
4573 5441
4573 5511
4573 5669
4573 5905
4573 6194
4573 6811
4573 7377
4573 7407
4573 7894
4573 7969
4573 8063
4573 8296
4573 8659
4573 8741
4573 8835
4573 9809
4573 9840
4574 4785
4574 5770
4574 5852
4574 7628
4574 8234
4575 5196
4575 7337
4575 7455
4575 7482
4575 8047
4576 5588
4576 6405
4576 6419
4576 6988
4576 8082
4576 8334
4576 8455
4576 8922
4576 9078
4576 9419
4576 9932
4576 9933
4577 4612
4577 5233
4577 5620
4577 5630
4577 5704
4577 5720
4577 6177
4577 6326
4577 6647
4577 6924
4577 7146
4577 7371
4577 7394
4577 8208
4577 8525
4577 8661
4577 8759
4577 9395
4577 9429
4577 9548
4577 9623
4577 9634
4577 9697
4577 9823
4577 9972
4578 4958
4578 8031
4578 8828
4578 9949
4579 7216
4579 8722
4579 9179
4579 9208
4580 4855
4580 4978
4580 5932
4580 6791
4580 7774
4580 8526
4580 8713
4580 8879
4580 9190
4581 5776
4581 7056
4581 8809
4581 9437
4582 4775
4582 4828
4582 6734
4582 7255
4582 7330
4582 8230
4582 8433
4582 8781
4582 9051
4582 9210
4583 5679
4583 6590
4583 7210
4583 8248
4583 8870
4584 4992
4584 5780
4584 5861
4584 5969
4584 7618
4584 7852
4584 8228
4584 9728
4584 9950
4585 4812
4585 4849
4585 5154
4585 5262
4585 5629
4585 6354
4585 9717
4586 4591
4586 5146
4586 5202
4586 5373
4586 5736
4586 5776
4586 5808
4586 6607
4586 7430
4586 7750
4586 7848
4586 7995
4586 8593
4586 8691
4586 8854
4586 9014
4586 9426
4586 9688
4587 4909
4587 6128
4587 6274
4587 6827
4587 6937
4587 7592
4587 7699
4587 7807
4587 7922
4587 8193
4587 8370
4587 8460
4587 8557
4587 9205
4587 9268
4587 9494
4588 5886
4588 6472
4588 6571
4589 4778
4589 4803
4589 5184
4589 5409
4589 5614
4589 5625
4589 5805
4589 6053
4589 6144
4589 6626
4589 6815
4589 6837
4589 6914
4589 6935
4589 7178
4589 7289
4589 7292
4589 8092
4589 8233
4589 8250
4589 8316
4589 8382
4589 8459
4589 8521
4589 8803
4589 9167
4589 9173
4590 5183
4590 5239
4590 5895
4590 6338
4590 6961
4590 8649
4591 5540
4591 5577
4591 6199
4591 6510
4591 6683
4591 8841
4591 9426
4591 9763
4592 4603
4592 5501
4592 6071
4592 6077
4592 6409
4592 6422
4592 6763
4592 7597
4592 7871
4592 8359
4592 8486
4592 8876
4592 9066
4592 9327
4593 4633
4593 4969
4593 5370
4593 5442
4593 5726
4593 5804
4593 6466
4593 6608
4593 6768
4593 6860
4593 7496
4593 7783
4593 7809
4593 8311
4593 8392
4593 8528
4593 8701
4593 8761
4593 8998
4593 9450
4593 9612
4593 9717
4594 5690
4594 6771
4594 6821
4594 8119
4594 8251
4594 8836
4595 4784
4595 4830
4595 6159
4595 6281
4595 7744
4595 8117
4595 8682
4595 8732
4595 9331
4596 4733
4596 4851
4596 5050
4596 5054
4596 5198
4596 5235
4596 5305
4596 5363
4596 6130
4596 6221
4596 6418
4596 6448
4596 6587
4596 7106
4596 7146
4596 7388
4596 7820
4596 8003
4596 8019
4596 8116
4596 8465
4596 8473
4596 8566
4596 9160
4596 9565
4596 9799
4596 9849
4597 5096
4597 5224
4597 5399
4597 6613
4597 7473
4597 7667
4597 7676
4597 8213
4597 9042
4597 9339
4598 4846
4598 5302
4598 6465
4598 7187
4598 7981
4598 8893
4598 9938
4599 7856
4599 8957
4599 9559
4600 5167
4600 5906
4600 6958
4600 7096
4600 7415
4600 7618
4600 7724
4600 8230
4600 8326
4600 8580
4600 8669
4600 8718
4600 8918
4600 8968
4600 9168
4600 9415
4600 9652
4600 9680
4600 9809
4601 5447
4601 5652
4601 6512
4601 7426
4601 7513
4601 7999
4601 9681
4602 5065
4602 5524
4602 7086
4602 7678
4602 7781
4602 7935
4602 8100
4602 8156
4602 8656
4602 8873
4602 8887
4602 9234
4602 9865
4603 4797
4603 5679
4603 5961
4603 6404
4603 6422
4603 6936
4603 7066
4603 7871
4603 7977
4603 8359
4603 9261
4603 9520
4604 4859
4604 5088
4604 5437
4604 5691
4604 5711
4604 7532
4604 8133
4604 8484
4604 9267
4605 5224
4605 5313
4605 6822
4605 8418
4605 9216
4605 9821
4606 5106
4606 5982
4606 6188
4606 6485
4606 6593
4606 6932
4606 8897
4606 8901
4606 9307
4606 9456
4607 4867
4607 5118
4607 5558
4607 5563
4607 5586
4607 5655
4607 5730
4607 6005
4607 6219
4607 6249
4607 6640
4607 6667
4607 6691
4607 7047
4607 7649
4607 7828
4607 7911
4607 8214
4607 8575
4607 9322
4607 9380
4607 9557
4607 9661
4607 9893
4608 5240
4608 5413
4608 7293
4608 7361
4608 7775
4608 8285
4608 8874
4608 9948
4609 4896
4609 6297
4609 8047
4609 8806
4610 6755
4610 6802
4610 7413
4610 7915
4610 8107
4610 8275
4610 8328
4610 9022
4611 5303
4611 5711
4611 6970
4611 7726
4611 8144
4611 8913
4611 9560
4611 9817
4612 4711
4612 5240
4612 5410
4612 5435
4612 6100
4612 8952
4613 7546
4613 8190
4613 8819
4613 9067
4613 9531
4613 9552
4613 9612
4613 9936
4614 5366
4614 6821
4614 7198
4614 7716
4614 7721
4614 8503
4614 8880
4614 9525
4615 5056
4615 5234
4615 5240
4615 5894
4615 6014
4615 6250
4615 6667
4615 7540
4615 8021
4615 8228
4615 8264
4615 8963
4615 9311
4615 9645
4616 4733
4616 4915
4616 5144
4616 5248
4616 6464
4616 6921
4616 7183
4616 8355
4617 4832
4617 5988
4617 6054
4617 7288
4617 7409
4617 7435
4617 7622
4617 8534
4617 9357
4617 9738
4618 5649
4618 5810
4618 5844
4618 6141
4618 6172
4618 6229
4618 6278
4618 6419
4618 6507
4618 6561
4618 6593
4618 6899
4618 7096
4618 7295
4618 7834
4618 7945
4618 8233
4618 8409
4618 9034
4618 9570
4618 9793
4618 9984
4618 9993
4619 5001
4619 5330
4619 5546
4619 7682
4619 7794
4619 7886
4619 9095
4619 9335
4620 4761
4620 5577
4620 5922
4620 6184
4620 6684
4620 6698
4620 7102
4620 7464
4620 7994
4620 8426
4620 9928
4621 6164
4621 6419
4621 6473
4621 6871
4621 7005
4621 7689
4621 7962
4621 8521
4621 8617
4621 8919
4621 8976
4621 8982
4621 9931
4622 5550
4622 7051
4622 7369
4622 7659
4622 8228
4622 8796
4622 9450
4623 4915
4623 4997
4623 5070
4623 5329
4623 5375
4623 5426
4623 5566
4623 6507
4623 6867
4623 7058
4623 7391
4623 8227
4623 8407
4623 9018
4623 9132
4623 9174
4623 9330
4623 9418
4623 9694
4624 4813
4624 5366
4624 6163
4624 6377
4624 7094
4624 7983
4624 9917
4625 5058
4625 6727
4625 6942
4625 6995
4625 9434
4626 4732
4626 5734
4626 5743
4626 6089
4626 6130
4626 6402
4626 6762
4626 7417
4626 7592
4626 8327
4626 8597
4626 9132
4626 9160
4626 9270
4626 9272
4626 9570
4626 9729
4627 5944
4627 5947
4627 6688
4627 6868
4627 6984
4627 7689
4627 7976
4627 9282
4628 6726
4628 7124
4628 7673
4628 8580
4628 9298
4629 5171
4629 5361
4629 5396
4629 5646
4629 6525
4629 6830
4629 7494
4629 7893
4629 7952
4629 8446
4630 4936
4630 5029
4630 5238
4630 6339
4630 7185
4630 7386
4630 7661
4630 8131
4630 8362
4630 9000
4630 9869
4631 5287
4631 5399
4631 5933
4631 6085
4631 6928
4631 7473
4631 7870
4631 8372
4631 8438
4631 9307
4631 9469
4631 9699
4631 9784
4632 5069
4632 6228
4632 6604
4632 6632
4632 7023
4632 7282
4632 7333
4632 8148
4632 9035
4632 9162
4633 4969
4633 5804
4633 5836
4633 6860
4633 7195
4633 7409
4633 7496
4633 7498
4633 8106
4633 8302
4633 8392
4633 8839
4633 8892
4633 9165
4633 9533
4633 9831
4634 5964
4634 7483
4634 7492
4634 7509
4634 8176
4634 8395
4634 8892
4634 9657
4635 4959
4635 5190
4635 6022
4635 6752
4635 8862
4635 8996
4635 9788
4636 4744
4636 4776
4636 5433
4636 6585
4636 7389
4636 7479
4636 7548
4636 7898
4636 8672
4636 9061
4636 9188
4636 9582
4637 5453
4637 5591
4637 6526
4637 7567
4637 7602
4637 7623
4637 7997
4637 8619
4637 8809
4637 9116
4637 9415
4637 9958
4638 4985
4638 5337
4638 5350
4638 6084
4638 6815
4638 6918
4638 6987
4638 7164
4638 8262
4638 8406
4638 9344
4638 9454
4638 9644
4638 9979
4638 9982
4639 6452
4639 6956
4639 7396
4639 8000
4639 8750
4639 8964
4639 9132
4640 5441
4640 5805
4640 6560
4640 6811
4640 6835
4640 6883
4640 8049
4641 5412
4641 6032
4641 6397
4641 7048
4641 7172
4641 7329
4641 8108
4641 8461
4641 8702
4641 9873
4641 9926
4642 5969
4642 7052
4642 7240
4642 8180
4642 8917
4642 9008
4643 4685
4643 5238
4643 5503
4643 6078
4643 6666
4643 8483
4643 8650
4643 8882
4643 9592
4643 9914
4644 5481
4644 6098
4644 6370
4644 6584
4644 6596
4644 8609
4644 9403
4644 9821
4644 9998
4645 4698
4645 5082
4645 5918
4645 6446
4645 7232
4645 7627
4645 7845
4645 8299
4645 8859
4645 9593
4646 4958
4646 5147
4646 5612
4646 6643
4646 7292
4646 7800
4646 7928
4646 8265
4646 8328
4646 9545
4647 4885
4647 5043
4647 5213
4647 5810
4647 6653
4647 7250
4647 7277
4647 8243
4647 8403
4647 9047
4647 9603
4648 5452
4648 5464
4648 6473
4648 6637
4648 7045
4648 7168
4648 7717
4648 7797
4648 8924
4649 4702
4649 5436
4649 5589
4649 6084
4649 6494
4649 6796
4649 7406
4649 7674
4649 8114
4649 8242
4649 8485
4649 8514
4649 8612
4649 9601
4650 4713
4650 5824
4650 5985
4650 6375
4650 9482
4651 5761
4651 6259
4651 6997
4651 7936
4651 8040
4651 8819
4651 9677
4652 5008
4652 5058
4652 5141
4652 5889
4652 5964
4652 5980
4652 6203
4652 6352
4652 7015
4652 7941
4652 8104
4652 8188
4652 9481
4653 4758
4653 5322
4653 6288
4653 6826
4653 7607
4653 7960
4654 4801
4654 5660
4654 6653
4654 7885
4654 8288
4654 9164
4654 9204
4655 5855
4655 6035
4655 6742
4655 8694
4655 9279
4655 9483
4655 9669
4656 4760
4656 5009
4656 6017
4656 6812
4656 6982
4656 7831
4656 8088
4656 8864
4656 9582
4657 6464
4657 7200
4657 7494
4657 8005
4657 8318
4657 9431
4657 9941
4658 4762
4658 6152
4658 6264
4658 6333
4658 7344
4658 7524
4658 8882
4658 9503
4658 9607
4659 6290
4659 6962
4659 7762
4659 8143
4659 8300
4659 8736
4659 8901
4659 8962
4659 9995
4660 5152
4660 5681
4660 5717
4660 7467
4660 8379
4660 8435
4660 9732
4660 9884
4661 4846
4661 5137
4661 6064
4661 6230
4661 6891
4661 9357
4661 9369
4662 4941
4662 5555
4662 5805
4662 6416
4662 6465
4662 6666
4662 7998
4662 8191
4662 9991
4663 4764
4663 5124
4663 5657
4663 5675
4663 6049
4663 6656
4663 6837
4663 7764
4663 8079
4663 8763
4663 8770
4664 4919
4664 5082
4664 5765
4664 6055
4664 7960
4665 5168
4665 5272
4665 6735
4665 7176
4665 7396
4666 5690
4666 7973
4666 8797
4666 9481
4667 5587
4667 5786
4667 5951
4667 7618
4667 8003
4667 8383
4667 8448
4667 8857
4667 8936
4667 9521
4668 5096
4668 6014
4668 6347
4668 8453
4668 9247
4668 9574
4669 4768
4669 7107
4669 7804
4669 8369
4669 8699
4669 9052
4669 9149
4670 5363
4670 5411
4670 6175
4670 6541
4670 7087
4670 7739
4670 7858
4670 9015
4670 9256
4670 9446
4670 9991
4671 5312
4671 5464
4671 6940
4671 8770
4672 5722
4672 6268
4672 6593
4672 7093
4672 7319
4672 7444
4672 7553
4672 8201
4672 9077
4672 9820
4672 9953
4673 5288
4673 5639
4673 6292
4673 7757
4673 7893
4673 8481
4673 9242
4673 9499
4673 9523
4673 9715
4674 4785
4674 4945
4674 5924
4674 6553
4674 6644
4674 6804
4674 7100
4674 7156
4674 7733
4674 7776
4674 7833
4674 8933
4674 9061
4674 9179
4674 9324
4674 9332
4674 9647
4675 4687
4675 4993
4675 5019
4675 5907
4675 6257
4675 6604
4675 6828
4675 7418
4675 7506
4675 7544
4675 7685
4675 8093
4675 8971
4675 9211
4675 9735
4675 9737
4676 5229
4676 7182
4676 7495
4676 8318
4676 8498
4676 9280
4676 9298
4676 9631
4676 9890
4676 9987
4677 6257
4677 6895
4677 7461
4677 9209
4678 5015
4678 5021
4678 5246
4678 5849
4678 6091
4678 6139
4678 6516
4678 7820
4678 8041
4678 8381
4678 8872
4678 9349
4678 9597
4679 5398
4679 6598
4679 9398
4679 9718
4680 4694
4680 5099
4680 5560
4680 5887
4680 6451
4680 6590
4680 6807
4680 7437
4680 8537
4680 8705
4680 9057
4680 9228
4680 9421
4680 9736
4681 5282
4681 5315
4681 5886
4681 6041
4681 8474
4681 8985
4681 9531
4682 5743
4682 7517
4682 7815
4682 7865
4682 8134
4682 8383
4682 9705
4682 9839
4683 4775
4683 5885
4683 6119
4683 6175
4683 6934
4683 7549
4683 7872
4683 7899
4683 8454
4684 5613
4684 5657
4684 6460
4684 9906
4685 6077
4685 6228
4685 6569
4685 7723
4685 8941
4685 9254
4685 9554
4685 9661
4686 5549
4686 6503
4686 7284
4686 7835
4686 8544
4686 8681
4686 9431
4686 9649
4686 9779
4687 5900
4687 8563
4688 5182
4688 6201
4688 7402
4688 7937
4688 8132
4688 8169
4688 8368
4688 8934
4688 9277
4688 9744
4688 9771
4689 4750
4689 4940
4689 4968
4689 5598
4689 5743
4689 5987
4689 6156
4689 6411
4689 6698
4689 6703
4689 6985
4689 7797
4689 8392
4689 8890
4689 8999
4689 9051
4689 9111
4689 9187
4689 9432
4689 9822
4689 9974
4690 5410
4690 5912
4690 6487
4690 8229
4690 9676
4690 9825
4690 9900
4691 5000
4691 5227
4691 5495
4691 5820
4691 6399
4691 6546
4691 6883
4691 7048
4691 7597
4691 7799
4691 8101
4691 9605
4692 4846
4692 5396
4692 7842
4692 8848
4693 7035
4693 7058
4693 7064
4693 7449
4693 8051
4693 8335
4693 8562
4694 6149
4694 6275
4694 6521
4694 7009
4694 7188
4694 7287
4694 8116
4694 8597
4694 8732
4694 8788
4694 9265
4694 9574
4695 5740
4695 6232
4695 6608
4695 7523
4695 8388
4695 8707
4695 9521
4695 9551
4695 9652
4695 9795
4696 6093
4696 6686
4696 7296
4696 7540
4696 7975
4696 8288
4696 9378
4696 9666
4697 5743
4697 6625
4697 7559
4697 7889
4697 8663
4697 8703
4697 9445
4697 9485
4697 9702
4698 6105
4698 8442
4698 9159
4698 9467
4699 5113
4699 5145
4699 5657
4699 5700
4699 6018
4699 6564
4699 6589
4699 6608
4699 6709
4699 7329
4699 7362
4699 7490
4699 8973
4699 9088
4699 9544
4699 9661
4700 5344
4700 6678
4700 7108
4700 7950
4700 8808
4700 9580
4700 9664
4701 5464
4701 5561
4701 5583
4701 5660
4701 8773
4701 8891
4701 9093
4701 9117
4701 9226
4701 9470
4702 5530
4702 5742
4702 5960
4702 5969
4702 6157
4702 6462
4702 6482
4702 7019
4702 7112
4702 7197
4702 7519
4702 7941
4702 8255
4702 8449
4702 8762
4702 8800
4702 9029
4702 9132
4702 9216
4702 9741
4702 9870
4702 9932
4703 4873
4703 4882
4703 5169
4703 5577
4703 5586
4703 5967
4703 6211
4703 6630
4703 6693
4703 6782
4703 6866
4703 6951
4703 7289
4703 7610
4703 7637
4703 7828
4703 7877
4703 8095
4703 8523
4703 8710
4703 8914
4703 9141
4703 9190
4703 9380
4703 9734
4703 9863
4704 4841
4704 5069
4704 5687
4704 5919
4704 6147
4704 6534
4704 6669
4704 6715
4704 6853
4704 8308
4704 8467
4704 8537
4704 8606
4704 9013
4704 9407
4705 5052
4705 5250
4705 5856
4705 6307
4705 6729
4705 7104
4705 7211
4705 8194
4705 8361
4705 8412
4705 8931
4705 9339
4706 5851
4706 7110
4706 7709
4706 7880
4706 8903
4707 5365
4707 5431
4707 6741
4707 6759
4707 6959
4707 7866
4707 8216
4707 8228
4707 8581
4707 8670
4707 8741
4707 9240
4707 9750
4708 6057
4708 6719
4708 7770
4708 9023
4708 9774
4709 5437
4709 6358
4709 7111
4709 9065
4709 9348
4710 4753
4710 5253
4710 6404
4710 6618
4710 6958
4710 8001
4710 8196
4710 8818
4711 5154
4711 5435
4711 6408
4711 7556
4711 7832
4711 8476
4711 8952
4712 5307
4712 5446
4712 6398
4712 6408
4712 6534
4712 7404
4712 7633
4712 7683
4712 8221
4712 8804
4712 8951
4712 9267
4712 9587
4713 5181
4713 6239
4713 7299
4713 8419
4713 8617
4713 8859
4713 9185
4713 9885
4714 5538
4714 6117
4714 7991
4714 8317
4714 8484
4714 8715
4714 8793
4714 8976
4714 9479
4715 5212
4715 5934
4715 7534
4715 7576
4715 7610
4715 9969
4716 4842
4716 5324
4716 5512
4716 5642
4716 5764
4716 7191
4716 8465
4716 9759
4717 5094
4717 5369
4717 6012
4717 6449
4717 6624
4717 7580
4717 8415
4717 9210
4717 9443
4717 9997
4718 4986
4718 5008
4718 7015
4718 9174
4719 5298
4719 6456
4719 6510
4719 6913
4719 7764
4719 8184
4719 8916
4719 9123
4720 4835
4720 5072
4720 6217
4720 8941
4720 9051
4720 9128
4720 9259
4720 9487
4720 9497
4721 4982
4721 6182
4721 8448
4721 8852
4721 9055
4721 9201
4721 9800
4721 9896
4722 7878
4722 9264
4723 6037
4723 7045
4723 7250
4723 7791
4723 8153
4723 8648
4723 9390
4724 5378
4724 5450
4724 5559
4724 6019
4724 6486
4724 6988
4724 8421
4724 8759
4724 8990
4725 5255
4725 5473
4725 5524
4725 6554
4725 7075
4725 7363
4725 7602
4725 8133
4725 9218
4725 9530
4725 9790
4726 5021
4726 5170
4726 6858
4726 7401
4726 8825
4726 9731
4726 9786
4727 4972
4727 5642
4727 5822
4727 6648
4727 6772
4727 7055
4727 7407
4727 8441
4727 8792
4727 9841
4727 9934
4728 6225
4728 7978
4728 8023
4728 8441
4728 8747
4728 9298
4728 9309
4728 9919
4729 4966
4729 5052
4729 5606
4729 5649
4729 8409
4729 8670
4730 5538
4730 5623
4730 5729
4730 6406
4730 6882
4730 7922
4730 8535
4731 4998
4731 5000
4731 5802
4731 6366
4731 7034
4731 7943
4731 8267
4731 9141
4732 5088
4732 5576
4732 5809
4732 6512
4732 7156
4732 8372
4733 4764
4733 5144
4733 5189
4733 5858
4733 6103
4733 6852
4733 6855
4733 7545
4733 8104
4733 8765
4733 9048
4733 9138
4733 9358
4733 9663
4734 5493
4734 5810
4734 6077
4734 7183
4734 7540
4734 8475
4734 8792
4734 8834
4734 8991
4734 9149
4735 4854
4735 4875
4735 5453
4735 5601
4735 5625
4735 5697
4735 5928
4735 6263
4735 6591
4735 6925
4735 7210
4735 7264
4735 7322
4735 7548
4735 7643
4735 8005
4735 8937
4735 9006
4735 9496
4735 9782
4736 5297
4736 5336
4736 6741
4736 7293
4736 8936
4737 5364
4737 5575
4737 5810
4737 6198
4737 6220
4737 6477
4737 6709
4737 7445
4737 7481
4737 7657
4737 7842
4737 8528
4737 8838
4737 9249
4737 9421
4737 9592
4737 9944
4738 6600
4738 7230
4738 8599
4738 9257
4738 9377
4738 9532
4739 5509
4739 5815
4739 7138
4739 7154
4739 9011
4739 9084
4739 9291
4740 5233
4740 5367
4740 5767
4740 6571
4740 7283
4740 8023
4740 9466
4740 9600
4741 4776
4741 5178
4741 5297
4741 5585
4741 5756
4741 5978
4741 6079
4741 6606
4741 6714
4741 6983
4741 7093
4741 7314
4741 7457
4741 7804
4741 7868
4741 7881
4741 8026
4741 8338
4741 9117
4742 5929
4742 6236
4742 7704
4742 8018
4742 8337
4742 8800
4742 9923
4743 4883
4743 5869
4743 6826
4743 7116
4744 5339
4744 5514
4744 5580
4744 5834
4744 6391
4744 6470
4744 6929
4744 7090
4744 7328
4744 7802
4744 8003
4744 8618
4744 8629
4744 9093
4744 9127
4744 9267
4744 9385
4745 5631
4745 5656
4745 6972
4745 8784
4745 9385
4745 9501
4746 5416
4746 5730
4746 6032
4746 6312
4746 6837
4746 7006
4746 7727
4746 8276
4746 8722
4746 9134
4746 9674
4747 5155
4747 6008
4747 6658
4747 7667
4747 7931
4748 5053
4748 6157
4748 6617
4748 6693
4748 7235
4748 7513
4748 8278
4748 8887
4748 9386
4749 4829
4749 4846
4749 4876
4749 5617
4749 5692
4749 6282
4749 6330
4749 6851
4749 6947
4749 7205
4749 7444
4749 7663
4749 7810
4749 7962
4749 8406
4749 8414
4749 8564
4749 8771
4749 8792
4749 9345
4750 4936
4750 5506
4750 5598
4750 6893
4750 7105
4750 7204
4750 8227
4750 8496
4750 9550
4750 9674
4751 4851
4751 5720
4751 6085
4751 6941
4751 7994
4751 8475
4751 9791
4752 5144
4752 5510
4752 5810
4752 9678
4753 5639
4753 7723
4753 8590
4753 8630
4753 8655
4753 9339
4753 9445
4754 5932
4754 8497
4755 5256
4755 5642
4755 7258
4755 7641
4755 7941
4755 9170
4755 9180
4755 9830
4756 5095
4756 5450
4756 6219
4756 6916
4756 9195
4756 9470
4756 9512
4756 9879
4757 6727
4757 7498
4758 4984
4758 5138
4758 5486
4758 6020
4758 6140
4758 6946
4758 7960
4758 8962
4758 9317
4759 5242
4759 5255
4759 8236
4759 8466
4759 9154
4760 4904
4760 5296
4760 5399
4760 5580
4760 5731
4760 6312
4760 6403
4760 6434
4760 6713
4760 6984
4760 7475
4760 7516
4760 7786
4760 7834
4760 7851
4760 7948
4760 8373
4760 8441
4760 8769
4760 9310
4760 9792
4760 9909
4760 9919
4761 4947
4761 5886
4761 5906
4761 7883
4761 9144
4761 9647
4762 4823
4762 6205
4762 6264
4762 7344
4762 7524
4762 8073
4762 8462
4762 9351
4762 9557
4762 9597
4762 9599
4763 5062
4763 7314
4763 7352
4763 7974
4763 8156
4763 9306
4764 4766
4764 5158
4764 5749
4764 5881
4764 6110
4764 6558
4764 6632
4764 7423
4764 7473
4764 7596
4764 7675
4764 7729
4764 8265
4764 8943
4764 9668
4765 5129
4765 5634
4765 6296
4765 6514
4765 6745
4765 6888
4765 7644
4765 8326
4765 8368
4765 8427
4765 9004
4765 9527
4765 9630
4765 9686
4765 9736
4765 9795
4766 4797
4766 5049
4766 5562
4766 5859
4766 5977
4766 6100
4766 6522
4766 6750
4766 7287
4766 7925
4766 8014
4766 8208
4766 8723
4766 8908
4767 4903
4767 4993
4767 7382
4767 7646
4767 8439
4767 9062
4767 9393
4768 4854
4768 5376
4768 5532
4768 7021
4768 7645
4768 8015
4769 4966
4769 5145
4769 5285
4769 5602
4769 6053
4769 6421
4769 7976
4769 8645
4769 9007
4769 9091
4769 9603
4770 5916
4770 6150
4770 7506
4770 8634
4770 9064
4771 5042
4771 5211
4771 5426
4771 5546
4771 5935
4771 6169
4771 6657
4771 7037
4771 7240
4771 7256
4771 7438
4771 7479
4771 7723
4771 7732
4771 7969
4771 8053
4771 8315
4771 9191
4771 9694
4772 6115
4772 6202
4772 6637
4772 7235
4772 7314
4772 8574
4772 8967
4772 9993
4773 5058
4773 5307
4773 5455
4773 6033
4773 6115
4773 8318
4773 9801
4774 5143
4774 7180
4774 8188
4774 8434
4774 9660
4775 4938
4775 5111
4775 5362
4775 5491
4775 5535
4775 6203
4775 6355
4775 6463
4775 6660
4775 7066
4775 7411
4775 7564
4775 7609
4775 7624
4775 7860
4775 8013
4775 8178
4775 8181
4775 8298
4775 8761
4775 8857
4775 8885
4776 5756
4776 6154
4776 6471
4776 6679
4776 6723
4776 9076
4777 4850
4777 6241
4777 6718
4777 7139
4777 7140
4777 7393
4777 7498
4777 7722
4777 7818
4777 7882
4777 8266
4778 6054
4778 7394
4778 7806
4778 7819
4778 9064
4778 9078
4778 9416
4779 5237
4779 8306
4779 9284
4779 9355
4779 9954
4780 6442
4780 6570
4780 6862
4780 7222
4780 8189
4780 8246
4780 9131
4781 4981
4781 5166
4781 5639
4781 5657
4781 5714
4781 6009
4781 6048
4781 6302
4781 6325
4781 6574
4781 6799
4781 7200
4781 7218
4781 7397
4781 7604
4781 7629
4781 7667
4781 7971
4781 8050
4781 8418
4781 9873
4782 5603
4782 5774
4782 6134
4782 6268
4782 6347
4782 6399
4782 7257
4782 7277
4782 7308
4782 7635
4782 7650
4782 7821
4782 7831
4782 8073
4782 8561
4782 8565
4782 8872
4782 8943
4782 9259
4782 9688
4782 9818
4782 9952
4783 5517
4783 5903
4783 7024
4783 7212
4783 7595
4783 8949
4784 4957
4784 5376
4784 8491
4784 8732
4784 8836
4784 8925
4785 6208
4785 6257
4785 6915
4785 8688
4785 9269
4786 7933
4786 7947
4786 8031
4787 5171
4787 5354
4787 6084
4787 6289
4787 6944
4787 7008
4787 8746
4787 8821
4787 9631
4788 4790
4788 4813
4788 5260
4788 5422
4788 5880
4788 6115
4788 6245
4788 7961
4788 8459
4788 8585
4788 9664
4788 9862
4789 4831
4789 4992
4789 5205
4789 6104
4789 6133
4789 6150
4789 6295
4789 6591
4789 7206
4789 7611
4789 7787
4789 8414
4789 9592
4790 5146
4790 5242
4790 5272
4790 5728
4790 5929
4790 6958
4790 8219
4790 8910
4790 9869
4790 9973
4791 4949
4791 5235
4791 5767
4791 6025
4791 6660
4791 6871
4791 7288
4791 9721
4791 9740
4792 5723
4792 5814
4792 6222
4792 6438
4792 6959
4792 7300
4792 7505
4792 7945
4792 8465
4792 8534
4793 6372
4793 6382
4793 6442
4793 6594
4793 7382
4793 7627
4793 8103
4793 8782
4793 9517
4794 5043
4794 5129
4794 5186
4794 5513
4794 5709
4794 6133
4794 6225
4794 6988
4794 7426
4794 7555
4794 7663
4794 7849
4794 8191
4794 8227
4794 8646
4794 8699
4794 9152
4794 9237
4794 9292
4794 9332
4794 9439
4794 9687
4795 4939
4795 5224
4795 5607
4795 5743
4795 6011
4795 6111
4795 6189
4795 6361
4795 6412
4795 6434
4795 6489
4795 6580
4795 6599
4795 6677
4795 7266
4795 7928
4795 8631
4795 8634
4795 8786
4795 8994
4795 9040
4795 9458
4795 9484
4795 9718
4795 9857
4795 9926
4795 9991
4796 6042
4796 7449
4796 8067
4796 8228
4796 8558
4797 4872
4797 4994
4797 5150
4797 5451
4797 5514
4797 5657
4797 5710
4797 5714
4797 6359
4797 6848
4797 7109
4797 7275
4797 7463
4797 7632
4797 8415
4797 8623
4797 9099
4797 9490
4797 9520
4798 4842
4798 5452
4798 5473
4798 6103
4798 6148
4798 6397
4798 6468
4798 6586
4798 6709
4798 6786
4798 7016
4798 7578
4798 8276
4798 8626
4798 8707
4798 9249
4798 9367
4798 9440
4798 9451
4798 9825
4799 5181
4799 5406
4799 6544
4799 7199
4799 7877
4799 8176
4799 8449
4799 8730
4799 8742
4800 5891
4800 7268
4800 7523
4800 8307
4800 9244
4801 4803
4801 5192
4801 5385
4801 5407
4801 5798
4801 5831
4801 6184
4801 6363
4801 6384
4801 6670
4801 7225
4801 7446
4801 7790
4801 8172
4801 8336
4801 8401
4801 8525
4801 8526
4801 8576
4801 8592
4801 9424
4801 9651
4802 5232
4802 5622
4802 6148
4802 6240
4802 7244
4802 7459
4802 8017
4802 9684
4803 6081
4803 6110
4803 6429
4803 6836
4803 6995
4803 8540
4803 9565
4804 4852
4804 5042
4804 5528
4804 5559
4804 5847
4804 6191
4804 6702
4804 6833
4804 7113
4804 7157
4804 7562
4804 7719
4804 7842
4804 8352
4804 8582
4804 8820
4804 9450
4804 9863
4805 5367
4805 6047
4805 6411
4805 6487
4805 6538
4805 7783
4805 8035
4805 8206
4805 8225
4805 8383
4805 8640
4805 8839
4805 9299
4805 9774
4806 5805
4806 5962
4806 6591
4806 6630
4806 6919
4806 7152
4806 7752
4806 7792
4806 7840
4806 9290
4806 9339
4806 9838
4807 5302
4807 5338
4807 5364
4807 5664
4807 5816
4807 5953
4807 6277
4807 6540
4807 8683
4807 8816
4807 8882
4807 9453
4807 9747
4807 9752
4807 9894
4808 5183
4808 6046
4808 6795
4808 7169
4808 8062
4808 8511
4809 5080
4809 6103
4809 6429
4809 6935
4809 7059
4809 8091
4809 8252
4809 8615
4809 8696
4809 9272
4810 6612
4810 6973
4810 7671
4810 7780
4810 8190
4810 9275
4811 4875
4811 4901
4811 5019
4811 5041
4811 5631
4811 5874
4811 5973
4811 7039
4811 7650
4811 7717
4811 8178
4811 8517
4811 8777
4811 8849
4811 8887
4811 9244
4811 9524
4811 9764
4812 4993
4812 5215
4812 5757
4812 5833
4812 5996
4812 6942
4812 7067
4812 7257
4812 7718
4812 7786
4812 8045
4812 8305
4812 8556
4812 8672
4812 8901
4812 9155
4812 9916
4813 5014
4813 5049
4813 5366
4813 5843
4813 6287
4813 6377
4813 6551
4813 6862
4813 7873
4813 8159
4813 8664
4813 8791
4813 9151
4813 9172
4813 9551
4813 9729
4813 9893
4813 9917
4813 9948
4814 4815
4814 5134
4814 6030
4814 6533
4814 6706
4814 8250
4814 8805
4814 9873
4815 5759
4815 7461
4815 7483
4815 7851
4815 7853
4815 8207
4815 8532
4815 9706
4815 9804
4816 5723
4816 6309
4816 7714
4816 7888
4816 9074
4816 9678
4817 6139
4817 6431
4817 8115
4818 5521
4818 5621
4818 6213
4818 6276
4818 6499
4818 6889
4818 7263
4818 7419
4818 7446
4818 7464
4818 7689
4818 7704
4818 7858
4818 8083
4818 8147
4818 8359
4818 9183
4819 5900
4819 6544
4819 6919
4819 6939
4819 6950
4819 6980
4819 8102
4820 5112
4820 5281
4820 6088
4820 7338
4820 8438
4820 8560
4820 9245
4820 9541
4820 9607
4821 5246
4821 5497
4821 6115
4821 6393
4821 6573
4821 6937
4821 6991
4821 7309
4821 8542
4821 8797
4821 9380
4821 9390
4822 5231
4822 5281
4822 6670
4822 8092
4822 8099
4822 8167
4822 8412
4822 8610
4823 5373
4823 6551
4823 6906
4823 7145
4823 7928
4823 8380
4823 9094
4823 9681
4824 4844
4824 5314
4824 5497
4824 6039
4824 6078
4824 7464
4824 8001
4824 8137
4824 8355
4824 9342
4825 5740
4825 6163
4825 7954
4825 7983
4825 8074
4825 8551
4825 8662
4825 8763
4825 9561
4825 9593
4825 9631
4826 5927
4826 6016
4826 6402
4826 6410
4826 6453
4826 6902
4826 8328
4826 8555
4826 8646
4826 8832
4826 9098
4826 9928
4827 5004
4827 5402
4827 5563
4827 5638
4827 6640
4827 8442
4827 8708
4827 9347
4827 9498
4827 9581
4827 9959
4828 6505
4828 6623
4828 7003
4828 8322
4828 8433
4829 4836
4829 4902
4829 5330
4829 5924
4829 5970
4829 6565
4829 7485
4829 8040
4829 8422
4829 8609
4829 9074
4829 9484
4829 9700
4830 5313
4830 5710
4830 5863
4830 5924
4830 6365
4830 6373
4830 6632
4830 7650
4830 8169
4830 8553
4830 9364
4830 9601
4830 9620
4830 9622
4831 4992
4831 5391
4831 5593
4831 5802
4831 7800
4831 8447
4831 8685
4831 9602
4831 9801
4832 5501
4832 5556
4832 6054
4832 7059
4832 7288
4832 7435
4832 7840
4832 7850
4832 8209
4832 8212
4832 8236
4832 8534
4832 8884
4832 9194
4832 9357
4832 9674
4832 9738
4832 9977
4833 5984
4833 6398
4833 8516
4833 9616
4833 9755
4833 9846
4834 5013
4834 6374
4834 7236
4834 7424
4835 6315
4835 6402
4835 7940
4835 9053
4835 9712
4836 5938
4836 6075
4836 6408
4836 6501
4836 7005
4836 7130
4836 7240
4836 7261
4836 8201
4837 5513
4837 6664
4837 8257
4837 8744
4837 8746
4837 8916
4837 8964
4837 9271
4838 5610
4838 5796
4838 5808
4838 7285
4838 8239
4838 9065
4838 9287
4839 5006
4839 5761
4839 6005
4839 6225
4839 6591
4839 7662
4839 8023
4839 8407
4839 9071
4840 5851
4840 6425
4840 7020
4840 7880
4840 8153
4840 8903
4840 9989
4841 6173
4841 6444
4841 7397
4841 7419
4841 7639
4841 8519
4841 8601
4841 9139
4841 9407
4841 9521
4842 4948
4842 5137
4842 5432
4842 5452
4842 5924
4842 6022
4842 6110
4842 6397
4842 6544
4842 6705
4842 7521
4842 7532
4842 7989
4842 8245
4842 8462
4842 8613
4842 8627
4842 8662
4842 8721
4842 8936
4842 8943
4842 8951
4842 9637
4843 4935
4843 5803
4843 7207
4843 7443
4843 7901
4843 8869
4844 5159
4844 5292
4844 5323
4844 7683
4844 7786
4844 8238
4844 8296
4844 8442
4844 9156
4845 4849
4845 5936
4845 6604
4845 6620
4845 7027
4845 7110
4845 7247
4845 7359
4845 7636
4845 7701
4845 7945
4845 8113
4845 8431
4845 8862
4845 8878
4845 9024
4845 9112
4845 9145
4845 9344
4845 9377
4845 9955
4846 5423
4846 5507
4846 5530
4846 5789
4846 5959
4846 6295
4846 6307
4846 6315
4846 6421
4846 6465
4846 8022
4846 8242
4846 8362
4846 8893
4846 9356
4846 9358
4846 9566
4846 9938
4847 5502
4847 6010
4847 6092
4847 6358
4847 6983
4847 7003
4847 7405
4847 7616
4847 7735
4847 8318
4847 8460
4847 8579
4847 8606
4847 8668
4847 8850
4847 8924
4848 5134
4848 5300
4848 5992
4848 6149
4848 6518
4848 7039
4848 7667
4848 7689
4848 7977
4848 7998
4848 9540
4848 9907
4849 5262
4849 6594
4849 7100
4849 7650
4849 7833
4849 8179
4849 9266
4849 9489
4849 9885
4850 7139
4850 7722
4850 7993
4850 8549
4850 9721
4851 8069
4851 8417
4851 9093
4851 9997
4852 6833
4852 7485
4852 8581
4852 8777
4852 8820
4852 9213
4852 9338
4852 9623
4853 5605
4853 6151
4853 6791
4853 7331
4853 7394
4854 7444
4854 7805
4854 8071
4854 8096
4854 8099
4854 8453
4855 4861
4855 5704
4855 6077
4855 6115
4855 6170
4855 7646
4855 8125
4855 8878
4855 9028
4855 9378
4855 9985
4856 5429
4856 6573
4856 7224
4856 7721
4856 7806
4856 7980
4856 8287
4856 8371
4856 8446
4856 8890
4857 5187
4857 7168
4857 7385
4857 7856
4857 7886
4857 7993
4857 8001
4857 8199
4857 8206
4857 9010
4857 9423
4857 9569
4857 9866
4858 5402
4858 6184
4858 6721
4858 7473
4858 7694
4858 8524
4858 9661
4858 9925
4859 5650
4859 5854
4859 6242
4859 6486
4859 6589
4859 7903
4859 8068
4859 8770
4859 9375
4859 9774
4860 5036
4860 5072
4860 5611
4860 5887
4860 5952
4860 6870
4860 7403
4860 7649
4860 8738
4860 8777
4860 9517
4860 9874
4861 4924
4861 5022
4861 5590
4861 6081
4861 6127
4861 6543
4861 6850
4861 6937
4861 7384
4861 7982
4861 8113
4861 8218
4861 8594
4861 8647
4861 8963
4861 9211
4861 9367
4861 9885
4862 5292
4862 6463
4862 6483
4862 6678
4862 6955
4862 7373
4862 7479
4862 7701
4862 9093
4862 9197
4862 9630
4862 9742
4862 9968
4863 6509
4863 6773
4863 7215
4863 8522
4863 8733
4863 8911
4863 9030
4863 9928
4864 5127
4864 5849
4864 7205
4864 7895
4864 9099
4864 9552
4864 9631
4865 5022
4865 5809
4865 5981
4865 6186
4865 7266
4865 7561
4865 7622
4865 7712
4865 8103
4865 9014
4865 9022
4865 9115
4865 9496
4865 9555
4866 4885
4866 4891
4866 5948
4866 6505
4866 6565
4866 8535
4867 5230
4867 5593
4867 5730
4867 5997
4867 6073
4867 6813
4867 7061
4867 7136
4867 7483
4867 7649
4867 7828
4867 7946
4867 8081
4867 8214
4867 8360
4867 8928
4867 8933
4868 6232
4868 7136
4868 8010
4868 8417
4868 8647
4869 5006
4869 5812
4869 6333
4869 6422
4869 6657
4869 7220
4869 8108
4869 8159
4869 8176
4869 9173
4870 4914
4870 5249
4870 5441
4870 7174
4870 9362
4871 5250
4871 5505
4871 5588
4871 5743
4871 8082
4871 9933
4872 5317
4872 5396
4872 6397
4872 6698
4872 6837
4872 8613
4872 9250
4872 9293
4872 9755
4873 5589
4873 5597
4873 5660
4873 5906
4873 6135
4873 6196
4873 7390
4873 7903
4873 8998
4873 9033
4873 9491
4874 6475
4874 6923
4874 7825
4874 7843
4874 8395
4874 9672
4875 7031
4875 9150
4875 9570
4876 5980
4876 6664
4876 6710
4876 9024
4876 9334
4876 9873
4877 5253
4877 5853
4877 6698
4877 8704
4877 8778
4877 9245
4877 9493
4878 5263
4878 5707
4878 5965
4878 6427
4878 7038
4878 8118
4878 8774
4878 9020
4878 9111
4878 9438
4878 9787
4879 5179
4879 5256
4879 5971
4879 7424
4879 8111
4879 8138
4879 8421
4880 5017
4880 6201
4880 6726
4880 9080
4880 9289
4880 9314
4881 5209
4881 5447
4881 6513
4881 6904
4881 7356
4881 8451
4881 8778
4882 4885
4882 6526
4882 7808
4882 8243
4882 8400
4882 8403
4882 9047
4882 9603
4883 5001
4883 6503
4883 6512
4883 7246
4883 7744
4883 8178
4883 8183
4884 5321
4884 6244
4884 6404
4884 6573
4884 8287
4884 9491
4884 9518
4885 5525
4885 6068
4885 6311
4885 6864
4885 7949
4885 8243
4885 8403
4885 8432
4885 8560
4885 8747
4885 8814
4885 9179
4885 9283
4885 9355
4885 9603
4886 7276
4886 7341
4886 7393
4886 7707
4887 4941
4887 5267
4887 5514
4887 5782
4887 6771
4887 7453
4887 7705
4887 7873
4887 8027
4887 9316
4887 9432
4888 6499
4888 6548
4888 6626
4888 6649
4888 7321
4888 8363
4888 8805
4888 9609
4889 4917
4889 5062
4889 5255
4889 5424
4889 5902
4889 6231
4889 7166
4889 7358
4889 7762
4889 8657
4889 8819
4889 8833
4889 8890
4889 9254
4889 9791
4889 9864
4890 5040
4890 5056
4890 5283
4890 6539
4890 7240
4890 7687
4890 8071
4890 8106
4890 8335
4890 8479
4890 8536
4890 8616
4890 8638
4890 8729
4890 9064
4890 9154
4890 9176
4890 9478
4890 9646
4890 9739
4890 9857
4890 9906
4891 5537
4891 5650
4891 5782
4891 5948
4891 8027
4891 8138
4891 8835
4891 8881
4891 9120
4892 5523
4892 6150
4892 6489
4892 6673
4892 7024
4892 7420
4892 7616
4892 7706
4892 7794
4892 7882
4892 7993
4892 7995
4892 8057
4892 9961
4893 5391
4893 6173
4893 6510
4893 7556
4893 7757
4893 7875
4893 8431
4893 9856
4894 4970
4894 5327
4894 5669
4894 6108
4894 9170
4894 9985
4895 4956
4895 5310
4895 6062
4895 6259
4895 6274
4895 6432
4895 7462
4895 8996
4895 9264
4895 9750
4896 5028
4896 5317
4896 5664
4896 6155
4896 6706
4896 6779
4896 8634
4896 9005
4897 5510
4897 6752
4897 6972
4897 7238
4897 7678
4897 8318
4897 8871
4897 9050
4897 9262
4897 9567
4897 9612
4897 9616
4898 5432
4898 6371
4898 7183
4898 7578
4898 7851
4898 8621
4899 5707
4899 6037
4899 6056
4899 8297
4899 8778
4899 8828
4899 9026
4900 5155
4900 7154
4900 7250
4900 8153
4900 9184
4900 9763
4901 5175
4901 5207
4901 5738
4901 6542
4901 7437
4901 8546
4901 8680
4901 8777
4901 8794
4901 8958
4901 8988
4901 9231
4902 5271
4902 6056
4902 6246
4902 6665
4902 7036
4902 7748
4902 8230
4902 8284
4902 8538
4902 8756
4902 9008
4902 9013
4902 9135
4902 9512
4902 9732
4903 5115
4903 5414
4903 5710
4903 5922
4903 6664
4903 6815
4903 7096
4903 7332
4903 8034
4903 8270
4903 8339
4903 8616
4903 9014
4903 9335
4903 9747
4904 5155
4904 5476
4904 5856
4904 6302
4904 6663
4904 6916
4904 7125
4904 7373
4904 7689
4904 9231
4904 9267
4904 9576
4904 9717
4905 5120
4905 5311
4905 6369
4905 6741
4905 6972
4905 7011
4905 7490
4905 9281
4905 9493
4905 9607
4906 5829
4906 6069
4906 7228
4906 7630
4906 7757
4906 8247
4906 8781
4906 8940
4906 9135
4907 4942
4907 5332
4907 5399
4907 5653
4907 5994
4907 6033
4907 6259
4907 6830
4907 7121
4907 7246
4907 9093
4907 9289
4908 5103
4908 5334
4908 5406
4908 5558
4908 6395
4908 6408
4908 8090
4908 8434
4908 9946
4909 6373
4909 6515
4909 7180
4909 7224
4909 7918
4909 8098
4909 8242
4909 8514
4910 6826
4910 7172
4910 9222
4910 9722
4911 5034
4911 5782
4911 6013
4911 6875
4911 7512
4911 7664
4911 8913
4911 8974
4911 9675
4912 7712
4912 7933
4912 8862
4912 8930
4912 9001
4912 9653
4913 5042
4913 5254
4913 5406
4913 5808
4913 5869
4913 5951
4913 6042
4913 6107
4913 6464
4913 6478
4913 6569
4913 6727
4913 6915
4913 7905
4913 8223
4913 8540
4913 8761
4913 9375
4913 9455
4913 9652
4913 9780
4913 9793
4914 5184
4914 5962
4914 7799
4914 8070
4915 5289
4915 5819
4915 6625
4915 7488
4915 8527
4915 9932
4916 5502
4916 5713
4916 5873
4916 6277
4916 7070
4916 7724
4916 7933
4916 7947
4916 8031
4916 8072
4916 8691
4916 8789
4916 9754
4917 5316
4917 5518
4917 6178
4917 6789
4917 7082
4917 7155
4917 7296
4917 7659
4917 7954
4917 7991
4917 8055
4917 8165
4917 9540
4917 9811
4917 9954
4917 9972
4918 5799
4918 5851
4918 6572
4918 7809
4918 8306
4918 8771
4918 9347
4919 6309
4919 8131
4919 9349
4919 9600
4919 9777
4920 5408
4920 5639
4920 7437
4920 7797
4920 8028
4920 8839
4920 8846
4920 9667
4921 5009
4921 5621
4921 6031
4921 6290
4921 6294
4921 6302
4921 6559
4921 6773
4921 6866
4921 7203
4921 7239
4921 7518
4921 7752
4921 8162
4921 8228
4921 9058
4921 9137
4921 9256
4922 5553
4922 6153
4922 7044
4922 7645
4922 8882
4922 9640
4923 6048
4923 6747
4923 7563
4923 8657
4923 8852
4923 8958
4923 9115
4923 9291
4924 6191
4924 6470
4924 8386
4925 5345
4925 6596
4925 6686
4925 7872
4925 8778
4925 9255
4925 9384
4926 5594
4926 5866
4926 5996
4926 6258
4926 6279
4926 6723
4926 6744
4926 7297
4926 9230
4926 9406
4926 9594
4927 5319
4927 6846
4927 7893
4927 8652
4927 8926
4927 9338
4928 5264
4928 5373
4928 6501
4928 6865
4928 6866
4928 7510
4928 8201
4928 8649
4928 9170
4929 6312
4929 6708
4929 9098
4929 9398
4929 9612
4929 9783
4930 6385
4930 8412
4930 8712
4930 8868
4930 8902
4930 8926
4930 9257
4930 9622
4930 9916
4931 6219
4931 7785
4931 8416
4931 8872
4932 5067
4932 5088
4932 5874
4932 6959
4932 7017
4932 8413
4932 9206
4933 5055
4933 6622
4933 6643
4933 6879
4933 7352
4933 7404
4933 7662
4933 8660
4934 5776
4934 5886
4934 6575
4934 6754
4934 7779
4935 5149
4935 5170
4935 5803
4935 6625
4935 6649
4935 7094
4935 7443
4935 7497
4935 7901
4935 8053
4935 8869
4935 9037
4935 9151
4935 9651
4936 5038
4936 5190
4936 6451
4936 7442
4936 8032
4936 9786
4936 9951
4937 5407
4937 5699
4937 6629
4937 7249
4937 7676
4937 7802
4937 7938
4937 8282
4937 8742
4938 4989
4938 5186
4938 5195
4938 5392
4938 5479
4938 5529
4938 5827
4938 6403
4938 7157
4938 7367
4938 7400
4938 7516
4938 7751
4938 8020
4938 8503
4938 8721
4938 9117
4938 9160
4938 9525
4938 9876
4938 9982
4939 5437
4939 6295
4939 6529
4939 7944
4939 8663
4939 9737
4940 5260
4940 6030
4940 6833
4940 7760
4940 8054
4940 9143
4940 9507
4940 9716
4941 6445
4941 7019
4941 7357
4941 7922
4941 9053
4942 5994
4942 7086
4942 7121
4942 7449
4942 7949
4942 8788
4942 9289
4942 9341
4942 9352
4942 9457
4942 9901
4943 5023
4943 5394
4943 6483
4943 6660
4943 6813
4943 7774
4943 9985
4944 5807
4944 7618
4944 9301
4945 4970
4945 5311
4945 6166
4945 7220
4945 7833
4945 8121
4945 8508
4945 8933
4945 9712
4945 9917
4946 7908
4946 8191
4946 8776
4946 8991
4947 5534
4947 6257
4947 6922
4947 7473
4947 8398
4947 8904
4947 9038
4948 6613
4948 6740
4948 6815
4948 6864
4948 7475
4948 7654
4948 8126
4948 8808
4948 9134
4948 9168
4948 9219
4949 5374
4949 5565
4949 6547
4949 7608
4949 7685
4949 8520
4949 8825
4949 9087
4949 9354
4949 9637
4949 9690
4950 5583
4950 5808
4950 6673
4950 6965
4950 7063
4950 7297
4950 7518
4950 9170
4951 5480
4951 7709
4951 8188
4951 8348
4951 8630
4951 9048
4951 9321
4952 7887
4952 8686
4952 8916
4952 9187
4952 9765
4952 9835
4953 5451
4953 5481
4953 5619
4953 6419
4953 6773
4953 8415
4953 8958
4954 5823
4954 6012
4954 6040
4954 6067
4954 7706
4954 7844
4954 7911
4954 8026
4954 8367
4954 8609
4954 8639
4954 9103
4954 9356
4954 9531
4954 9752
4954 9900
4955 6684
4955 7015
4955 7700
4955 8530
4955 8599
4955 9004
4955 9374
4955 9814
4956 5118
4956 6259
4956 6642
4956 6925
4956 7464
4956 7720
4956 7959
4956 8374
4956 9509
4956 9778
4956 9824
4957 4961
4957 5301
4957 6181
4957 6316
4957 6442
4957 7287
4957 7773
4957 9509
4958 4998
4958 5341
4958 5394
4958 5685
4958 5737
4958 5837
4958 5939
4958 6089
4958 6140
4958 7226
4958 7242
4958 7841
4958 8197
4958 8430
4958 8891
4958 9018
4958 9232
4958 9301
4958 9433
4958 9587
4959 5224
4959 5490
4959 5668
4959 6011
4959 7266
4959 8217
4959 8631
4959 8777
4959 9470
4959 9600
4960 5035
4960 5169
4960 5668
4960 6459
4960 6514
4960 7921
4960 9049
4960 9055
4960 9218
4960 9839
4961 5396
4961 6373
4961 7420
4961 7942
4962 5100
4962 6359
4962 6448
4962 6458
4962 6996
4962 7420
4962 7462
4962 8052
4962 8672
4962 9339
4962 9434
4962 9444
4963 5240
4963 6581
4963 6962
4963 7377
4963 7964
4963 8225
4963 9265
4963 9413
4964 5247
4964 5445
4964 5496
4964 6098
4964 6328
4964 6525
4964 6653
4964 6736
4964 6820
4964 9232
4964 9357
4965 6408
4965 6594
4965 7040
4965 7635
4965 8632
4965 9072
4965 9386
4965 9398
4966 5181
4966 5408
4966 5602
4966 5938
4966 6421
4966 6869
4966 7885
4966 8010
4966 8085
4966 8344
4966 8645
4966 9144
4966 9231
4966 9575
4966 9861
4967 6783
4967 7683
4967 8422
4967 8538
4967 9903
4968 6145
4968 7381
4968 7483
4968 7606
4968 8355
4968 8818
4969 5252
4969 5446
4969 6768
4969 8392
4969 8394
4969 8718
4969 8778
4969 9121
4969 9640
4970 5476
4970 5554
4970 5958
4970 6025
4970 6732
4970 6878
4970 6950
4970 7009
4970 7339
4970 7379
4970 7409
4970 7437
4970 7797
4970 7932
4970 8340
4970 9637
4970 9667
4970 9946
4971 5419
4971 5738
4971 5951
4971 6441
4971 6958
4971 7069
4971 7824
4971 7840
4971 7930
4971 8316
4971 8536
4971 9132
4972 5642
4972 7407
4972 7754
4972 7866
4972 8913
4972 9349
4972 9841
4973 5218
4973 5396
4973 5745
4973 6138
4973 6482
4973 6950
4973 7395
4973 7802
4973 8853
4974 5751
4974 5798
4974 8139
4974 8635
4974 9345
4975 5524
4975 8729
4976 6629
4976 6878
4976 7577
4976 8130
4976 8300
4976 8948
4976 9349
4977 5355
4977 5396
4977 5924
4977 6051
4977 6100
4977 7602
4977 8660
4978 7331
4978 8044
4978 8133
4978 8459
4979 5686
4979 6635
4979 6652
4979 6991
4979 8044
4979 9223
4980 5036
4980 5147
4980 5895
4980 6071
4980 7570
4980 7630
4980 8210
4980 8810
4980 9116
4981 5066
4981 5166
4981 5436
4981 5501
4981 5657
4981 6048
4981 7397
4981 8819
4981 9608
4982 5362
4982 6322
4982 6571
4982 6869
4982 8337
4982 8699
4983 6115
4983 6182
4983 6857
4983 7067
4983 7479
4983 7746
4983 8571
4983 8592
4983 9112
4983 9532
4984 5090
4984 5316
4984 5563
4984 6182
4984 6220
4984 6468
4984 7479
4984 9319
4984 9383
4984 9707
4985 5088
4985 5142
4985 6885
4985 7223
4985 7560
4985 7774
4985 9177
4986 5114
4986 5218
4986 5895
4986 6084
4986 6173
4986 6482
4986 6793
4986 7395
4987 5965
4987 6255
4987 7280
4987 8351
4987 9020
4988 6255
4988 7177
4988 7589
4988 8042
4988 8638
4988 8732
4988 8925
4988 9221
4989 5051
4989 5485
4989 6266
4989 6767
4989 7342
4989 7920
4989 8193
4989 8896
4989 9330
4989 9356
4989 9577
4989 9650
4989 9745
4989 9762
4989 9946
4990 4998
4990 5466
4990 5767
4990 6821
4990 7327
4990 7893
4990 8554
4990 9017
4990 9833
4990 9978
4991 5501
4991 7078
4991 7261
4991 7486
4991 7761
4991 8082
4991 8731
4991 9682
4992 5023
4992 6103
4992 6180
4992 6295
4992 6433
4992 6503
4992 6715
4992 6836
4992 7206
4992 7215
4992 7467
4992 7787
4992 8374
4992 8859
4992 9025
4992 9394
4992 9479
4992 9482
4992 9494
4992 9774
4992 9933
4992 9975
4993 5061
4993 5224
4993 5550
4993 5581
4993 5688
4993 5833
4993 5848
4993 6747
4993 6974
4993 7067
4993 7436
4993 7958
4993 8045
4993 8328
4993 8660
4993 9335
4993 9895
4993 9964
4994 5967
4994 6486
4994 8714
4995 6027
4995 7673
4995 8666
4995 9872
4996 5765
4996 6101
4996 6498
4996 7186
4996 7773
4996 8535
4996 9522
4997 6085
4997 7941
4997 8413
4997 9850
4997 9920
4998 5211
4998 5533
4998 5793
4998 6073
4998 6079
4998 6366
4998 6651
4998 6727
4998 6884
4998 6921
4998 7034
4998 7977
4998 8421
4998 8467
4998 8933
4998 9181
4998 9273
4998 9821
4998 9944
4998 9970
4999 6296
4999 7062
4999 8177
4999 8280
4999 8603
4999 8664
4999 8724
4999 8878
4999 9182
4999 9244
5000 5016
5000 6023
5000 6049
5000 6253
5000 6545
5000 7200
5000 8580
5001 7173
5001 7190
5001 8581
5001 9122
5002 5749
5002 5881
5002 8794
5002 9180
5002 9857
5003 5033
5003 5243
5003 5886
5003 7439
5003 8072
5003 8568
5003 8918
5003 8951
5003 9180
5003 9458
5003 9636
5004 5241
5004 5311
5004 5790
5004 6035
5004 6680
5004 6693
5004 8997
5005 5242
5005 5255
5005 5852
5005 6155
5005 6373
5005 7180
5005 8388
5005 8466
5005 9572
5006 5216
5006 5854
5006 6152
5006 7742
5006 7791
5006 9024
5006 9210
5006 9472
5007 5066
5007 5162
5007 5546
5007 5767
5007 6222
5007 6430
5007 6870
5007 7950
5007 8404
5007 9061
5008 5297
5008 5889
5008 6174
5008 6292
5008 6383
5008 6440
5008 6846
5008 7015
5008 7308
5008 8178
5008 8422
5008 8541
5008 8587
5008 8974
5008 9425
5008 9437
5008 9549
5008 9554
5008 9569
5009 6119
5009 7821
5009 7851
5009 8864
5010 5937
5010 6225
5010 6336
5010 8438
5010 8514
5010 9696
5011 5076
5011 6283
5011 6722
5011 7850
5011 8030
5011 8621
5012 5154
5012 6485
5012 7165
5012 7411
5012 7744
5012 8753
5012 9586
5013 5583
5013 5887
5013 5951
5013 6348
5013 7290
5013 7470
5013 7618
5013 7619
5013 8037
5013 8140
5013 8375
5013 8392
5013 8744
5013 9185
5013 9391
5013 9453
5013 9502
5013 9517
5013 9657
5014 5335
5014 5738
5014 6069
5014 6171
5014 6341
5014 6382
5014 6393
5014 7445
5014 7574
5014 7687
5014 7865
5014 8000
5014 9075
5014 9373
5014 9526
5014 9670
5014 9831
5015 5333
5015 5726
5015 6521
5015 6720
5015 6863
5015 7104
5015 7571
5015 7994
5015 8022
5015 8300
5015 8464
5015 8872
5015 9156
5015 9488
5015 9612
5015 9646
5015 9735
5015 9750
5016 5063
5016 6023
5016 6049
5016 6253
5016 6632
5016 6653
5016 7808
5016 8892
5016 9828
5017 5164
5017 5467
5017 7068
5017 7732
5017 9489
5017 9904
5018 5473
5018 5483
5018 7803
5018 8336
5018 9482
5019 5268
5019 5304
5019 5404
5019 6208
5019 7075
5019 8057
5019 9052
5019 9072
5019 9651
5020 5441
5020 5764
5020 6010
5020 6694
5020 6811
5020 8063
5020 8681
5020 9022
5020 9247
5021 5246
5021 6047
5021 6730
5021 7345
5021 8350
5021 8467
5021 8786
5021 9597
5022 5716
5022 6186
5022 6529
5022 7240
5022 7561
5022 7712
5022 8103
5022 8519
5023 5380
5023 5394
5023 5458
5023 6463
5023 6813
5023 7299
5023 7401
5023 7735
5023 7774
5023 8897
5023 9228
5024 6076
5024 7931
5024 8570
5024 8666
5024 9373
5024 9850
5025 5642
5025 6313
5025 6541
5025 6954
5025 7232
5025 7397
5025 7419
5025 7484
5025 7501
5025 7858
5025 8648
5025 9471
5025 9657
5025 9943
5025 9969
5026 5370
5026 5620
5026 6253
5026 6402
5026 6808
5026 7145
5026 7378
5026 7721
5026 7838
5026 8273
5027 5169
5027 6077
5027 6264
5027 6580
5027 6811
5027 8310
5027 8417
5027 8922
5027 9224
5027 9890
5028 5259
5028 5610
5028 5613
5028 7660
5028 7914
5028 8049
5028 8891
5028 9313
5028 9555
5028 9684
5029 6148
5029 7466
5029 8596
5029 8655
5030 5048
5030 5387
5030 6451
5030 6633
5030 6916
5030 7800
5030 8063
5030 8484
5030 8485
5030 8559
5030 8700
5030 9762
5030 9825
5030 9989
5031 5583
5031 5875
5031 7508
5031 7668
5031 8832
5031 9837
5032 5373
5032 5510
5032 5570
5032 6169
5032 6460
5032 6516
5032 8695
5032 8859
5033 7295
5033 7406
5033 7670
5033 7764
5033 9458
5034 5686
5034 6176
5034 6905
5034 7118
5034 7285
5034 8050
5034 8740
5034 8922
5034 8923
5034 9117
5034 9686
5035 5345
5035 8729
5035 9408
5035 9528
5035 9949
5036 5072
5036 5266
5036 5887
5036 8665
5036 9435
5036 9506
5037 5770
5037 5938
5037 6102
5037 6347
5037 6704
5037 7032
5037 7501
5037 7539
5037 7554
5037 7611
5037 7755
5037 7921
5037 8114
5037 8315
5037 8351
5037 8412
5037 8539
5037 8648
5037 8652
5037 8684
5037 8698
5037 9232
5037 9359
5038 5152
5038 5836
5038 5985
5038 6578
5038 7100
5038 8300
5038 8422
5038 8822
5038 9091
5038 9773
5038 9786
5038 9931
5038 9951
5039 5125
5039 6580
5039 6629
5039 6683
5039 7943
5039 8017
5039 9109
5039 9483
5040 6514
5041 5047
5041 5822
5041 6085
5041 6359
5041 6684
5041 6770
5041 7948
5041 8107
5041 9467
5042 5087
5042 5421
5042 6136
5042 6717
5042 7159
5042 7542
5042 7929
5042 8340
5042 8817
5042 8948
5042 9029
5042 9161
5042 9342
5042 9612
5042 9859
5042 9888
5043 5340
5043 5559
5043 5967
5043 6132
5043 6894
5043 7229
5043 8417
5043 9398
5044 5576
5044 5703
5044 6964
5044 8247
5044 9117
5044 9276
5045 5357
5045 5443
5045 6776
5045 6878
5045 7026
5045 7327
5045 7537
5045 8064
5045 8256
5045 8443
5045 8481
5045 9065
5045 9595
5046 6447
5046 6834
5046 6968
5046 6984
5046 7180
5046 8504
5046 9606
5046 9975
5047 5061
5047 5079
5047 5135
5047 5750
5047 6082
5047 7871
5047 8115
5047 8615
5047 8833
5048 5602
5048 6126
5048 6916
5048 7376
5048 8700
5048 8797
5048 9117
5048 9467
5048 9932
5049 6450
5049 7559
5049 9235
5050 5558
5050 6006
5050 6492
5050 6786
5050 6885
5050 7201
5050 7234
5050 7259
5050 8005
5050 9111
5051 5181
5051 5221
5051 7889
5051 8825
5051 9234
5051 9288
5052 5082
5052 5185
5052 5597
5052 6007
5052 6645
5052 7086
5052 8169
5052 8866
5052 9209
5052 9360
5052 9728
5052 9854
5053 5798
5053 7335
5053 8176
5053 8383
5053 8428
5053 9127
5053 9304
5054 5567
5054 6164
5054 6531
5054 7954
5054 8186
5054 8469
5054 8921
5055 5301
5055 5420
5055 6879
5055 7109
5055 7189
5055 7404
5055 7491
5055 7585
5055 7953
5056 5396
5056 5444
5056 5887
5056 6244
5056 6312
5056 6525
5056 6566
5056 6617
5056 6723
5056 7346
5056 7659
5056 7847
5056 8357
5056 8606
5056 8618
5056 9076
5056 9448
5056 9541
5057 5332
5057 5558
5057 7424
5057 9380
5057 9389
5058 5469
5058 5482
5058 5599
5058 5923
5058 6033
5058 6432
5058 6554
5058 6600
5058 6735
5058 6967
5058 7010
5058 7193
5058 7286
5058 7674
5058 8259
5058 8568
5058 8965
5058 8996
5058 9801
5059 7918
5059 8485
5059 8514
5059 8580
5059 9701
5060 5724
5060 5990
5060 7676
5060 9155
5061 5197
5061 5388
5061 5630
5061 6145
5061 6620
5061 7324
5061 7709
5061 7715
5061 8797
5061 9283
5061 9310
5061 9730
5061 9804
5061 9913
5062 5512
5062 6764
5062 6792
5062 7968
5062 8172
5062 8358
5062 9362
5062 9670
5062 9769
5063 5161
5063 5182
5063 5239
5063 5895
5063 5944
5063 6072
5063 6083
5063 6961
5063 7454
5063 8407
5063 9528
5063 9728
5063 9872
5063 9891
5064 5573
5064 5599
5064 5744
5064 5979
5064 7848
5064 8881
5064 9008
5064 9370
5064 9484
5064 9797
5065 5609
5065 7562
5065 7678
5065 8117
5065 9603
5065 9991
5066 5829
5066 6085
5066 7220
5066 7387
5066 7683
5066 9167
5066 9218
5066 9249
5066 9611
5066 9851
5067 5195
5067 5507
5067 5670
5067 6145
5067 6487
5067 7077
5067 7255
5067 7451
5067 7515
5067 8472
5067 8518
5067 9594
5067 9715
5067 9919
5068 5311
5068 5373
5068 5914
5068 6210
5068 8120
5068 8317
5068 8333
5068 8398
5068 8951
5068 9394
5068 9571
5068 9721
5069 6853
5069 6950
5069 7463
5069 8194
5069 8288
5069 8308
5069 9123
5069 9407
5070 5329
5070 5402
5070 6681
5070 7729
5070 7733
5070 8221
5070 9330
5070 9572
5070 9791
5071 6378
5071 7483
5071 8487
5071 9656
5072 5887
5072 6722
5072 9057
5073 5729
5073 6006
5073 6364
5073 6690
5073 8032
5073 8852
5073 9344
5073 9480
5073 9708
5074 5412
5074 6635
5074 8702
5075 6365
5075 6499
5075 8397
5075 8580
5075 9104
5076 5103
5076 5278
5076 5406
5076 5551
5076 5903
5076 6548
5076 6720
5076 6727
5076 7018
5076 7227
5076 7265
5076 7561
5076 7879
5076 8375
5076 9108
5076 9186
5076 9375
5077 6490
5077 6878
5077 7200
5077 7397
5077 8506
5077 8712
5077 8881
5077 9640
5077 9815
5078 6085
5078 6578
5078 6762
5078 7181
5078 8176
5078 8485
5078 8890
5078 9259
5079 5643
5079 6429
5079 7221
5079 9001
5079 9798
5080 5406
5080 5452
5080 5483
5080 7071
5080 8091
5080 8385
5080 8615
5080 8696
5080 9876
5081 5254
5081 5345
5081 5493
5081 7085
5081 7223
5081 7936
5081 8958
5081 8961
5081 9279
5081 9424
5081 9921
5082 5155
5082 5299
5082 5460
5082 5597
5082 6134
5082 6369
5082 7147
5082 7587
5082 8838
5082 8909
5082 9301
5082 9601
5082 9652
5082 9728
5082 9771
5082 9840
5082 9854
5083 5159
5083 6234
5083 6398
5083 6571
5083 6795
5083 6800
5083 9256
5083 9996
5084 6123
5084 6523
5084 6795
5084 6842
5084 7718
5084 7980
5084 8032
5084 8127
5084 8318
5084 8534
5085 5751
5085 5914
5085 6043
5085 8618
5086 6553
5086 6654
5086 7572
5086 7709
5086 7786
5086 7827
5086 7895
5086 7963
5087 5802
5087 6527
5087 7542
5087 8311
5087 8395
5087 8839
5087 9859
5087 9918
5088 5194
5088 5270
5088 5437
5088 5869
5088 6244
5088 6749
5088 6944
5088 6961
5088 7069
5088 7191
5088 8004
5088 8163
5088 8703
5088 9351
5088 9608
5088 9777
5088 9869
5089 5446
5089 5525
5089 5815
5089 6564
5089 7455
5089 7664
5089 7811
5089 8252
5089 8375
5089 9137
5089 9144
5089 9189
5089 9226
5090 5246
5090 5420
5090 6182
5090 6306
5090 6955
5090 7479
5090 8571
5090 9680
5090 9706
5091 5326
5091 5846
5091 6063
5091 6925
5091 6998
5091 7891
5091 7950
5091 8125
5091 8144
5091 9594
5092 5225
5092 5361
5092 6748
5092 7952
5092 8835
5092 8892
5093 5238
5093 5699
5093 5947
5093 6126
5093 6922
5093 7289
5093 7376
5093 7395
5093 8734
5093 9092
5093 9349
5093 9671
5094 5141
5094 5282
5094 6065
5094 6232
5094 6395
5094 6416
5094 6708
5094 7279
5094 7876
5094 8439
5094 8967
5094 9070
5094 9106
5094 9301
5094 9722
5094 9771
5095 5146
5095 5269
5095 6219
5095 6502
5095 6645
5095 6800
5095 6927
5095 6966
5095 7120
5095 7121
5095 7202
5095 7597
5095 7729
5095 7945
5095 8026
5095 8343
5095 8356
5095 8526
5095 8584
5095 9584
5095 9776
5095 9957
5096 5296
5096 5449
5096 5563
5096 6154
5096 6337
5096 7624
5096 8195
5096 8738
5096 8748
5096 8926
5096 9195
5096 9247
5096 9574
5097 5952
5097 6997
5097 7957
5097 8323
5097 8685
5097 8716
5097 9078
5097 9624
5097 9747
5098 5256
5098 5594
5098 5652
5098 5691
5098 5745
5098 5812
5098 6810
5098 7460
5098 7585
5098 8422
5098 8449
5098 9066
5099 5565
5099 5890
5099 6215
5099 7401
5099 8946
5100 5437
5100 6875
5100 7961
5100 8935
5100 8967
5100 9429
5100 9924
5101 5141
5101 5615
5101 8293
5101 8807
5101 9478
5101 9862
5102 5535
5102 5815
5102 6660
5102 8084
5102 9262
5102 9978
5103 5145
5103 5334
5103 5904
5103 5922
5103 6395
5103 6461
5103 6641
5103 6780
5103 6908
5103 7235
5103 7308
5103 7311
5103 7485
5103 8378
5103 8535
5103 9503
5103 9556
5103 9783
5103 9890
5104 5841
5104 5919
5104 5952
5104 6265
5104 6362
5104 6513
5104 6675
5104 8167
5104 8759
5104 8920
5104 9081
5105 5272
5105 5490
5105 6085
5105 9263
5105 9954
5106 6352
5106 7681
5106 8653
5106 8684
5106 9037
5106 9414
5106 9899
5107 5984
5107 6465
5107 6494
5107 6773
5107 7564
5107 7735
5107 8230
5107 8552
5107 9804
5108 6609
5108 7140
5108 9323
5109 5423
5109 7513
5110 5257
5110 5584
5110 5766
5110 7679
5110 7882
5110 8472
5110 8829
5110 8999
5110 9259
5110 9365
5111 5314
5111 5491
5111 6203
5111 6816
5111 8167
5111 8857
5111 9999
5112 5194
5112 5549
5112 7156
5112 7831
5112 7882
5112 8891
5112 8925
5112 9708
5112 9794
5112 9857
5113 6018
5113 7201
5113 8911
5113 8973
5113 9269
5114 5303
5114 5623
5114 5668
5114 5836
5114 5970
5114 5980
5114 6512
5114 6925
5114 6944
5114 6965
5114 7089
5114 7387
5114 7518
5114 7826
5114 7982
5114 8394
5114 8829
5114 8854
5114 9920
5115 6231
5115 8502
5116 5761
5116 5799
5116 5956
5116 6563
5116 7123
5116 8959
5116 9710
5117 6137
5117 6451
5117 6957
5117 7308
5117 7727
5117 9698
5118 6437
5118 8307
5118 8429
5118 8756
5119 5615
5119 7075
5119 9451
5120 5581
5120 6844
5120 8409
5120 8423
5120 8937
5120 9371
5120 9687
5121 5353
5121 5677
5121 5914
5121 7311
5121 7564
5121 8024
5121 8196
5121 8783
5121 9026
5121 9782
5122 6443
5122 6637
5123 6108
5123 6339
5123 6404
5123 6659
5123 7421
5123 8410
5123 9032
5123 9162
5124 5316
5124 5985
5124 6505
5124 6757
5124 7808
5124 8033
5124 8763
5124 9506
5125 5154
5125 5591
5125 6501
5125 8619
5125 9415
5126 5159
5126 5852
5126 6138
5126 6483
5126 6732
5126 7589
5126 8085
5126 8377
5126 9012
5126 9360
5127 5936
5127 6927
5127 7037
5127 7895
5127 8247
5127 8792
5127 9099
5127 9437
5127 9706
5127 9917
5128 5272
5128 6247
5128 6777
5128 8182
5128 8188
5128 9214
5129 7063
5129 7750
5129 8368
5129 9527
5130 5246
5130 5391
5130 5670
5130 6171
5130 6415
5130 6985
5130 7548
5130 8346
5130 8348
5130 9111
5130 9312
5130 9433
5130 9750
5131 6437
5131 6600
5131 6698
5131 8429
5131 8504
5131 8619
5132 5242
5132 5701
5132 8171
5132 8511
5132 9731
5133 6161
5133 7548
5133 7964
5133 8076
5133 9376
5134 5273
5134 6333
5134 6374
5134 7075
5134 7926
5134 8946
5134 9510
5135 5814
5135 6858
5135 7220
5135 7256
5135 7300
5135 7618
5135 7743
5136 5188
5136 5246
5136 6621
5136 7157
5136 7385
5136 7681
5136 8386
5136 9597
5136 9783
5137 5712
5137 8058
5137 8484
5137 8836
5137 9282
5138 5408
5138 6946
5138 7960
5138 8555
5139 5220
5139 5632
5139 5709
5139 6470
5139 7453
5139 7510
5139 7520
5139 8313
5139 8673
5139 9973
5140 5215
5140 5639
5140 5678
5140 5799
5140 7753
5140 8581
5140 8904
5140 9697
5140 9720
5141 5483
5141 5658
5141 6233
5141 6369
5141 8807
5141 9088
5142 6692
5142 6898
5142 7002
5142 7468
5142 8096
5142 9169
5143 5332
5143 6166
5143 7180
5143 7199
5143 9765
5143 9853
5143 9873
5144 5248
5144 6432
5144 6657
5144 7207
5144 7673
5144 7848
5144 7950
5144 9136
5145 6355
5145 6694
5145 6882
5145 9640
5146 5401
5146 5795
5146 6073
5146 6502
5146 7185
5146 7521
5146 8552
5146 8553
5146 8674
5147 6051
5147 7928
5147 8328
5147 9034
5148 5185
5148 5450
5148 6545
5148 7805
5148 8112
5148 8207
5148 8398
5149 5639
5149 5919
5149 6192
5149 7814
5149 8209
5149 8380
5150 5219
5150 6448
5150 7053
5150 7291
5150 7757
5150 8092
5150 8198
5150 8203
5150 8827
5150 9423
5150 9764
5150 9912
5151 5294
5151 6544
5151 7220
5151 7349
5151 7669
5151 8013
5151 8184
5151 8731
5152 5517
5152 5681
5152 6028
5152 7560
5152 7643
5152 7875
5152 7990
5152 8545
5152 9140
5152 9367
5152 9907
5153 5242
5153 5730
5153 5951
5153 5979
5153 6349
5153 7220
5153 8159
5153 8951
5153 9469
5154 5284
5154 5476
5154 6286
5154 6340
5154 6485
5154 6547
5154 6591
5154 6693
5154 6763
5154 6800
5154 6994
5154 7165
5154 7352
5154 7550
5154 7970
5154 8102
5154 8753
5154 9320
5154 9521
5154 9539
5154 9586
5154 9590
5155 5189
5155 5480
5155 5651
5155 5828
5155 6580
5155 6732
5155 6941
5155 7158
5155 7200
5155 7709
5155 8348
5155 8885
5155 9145
5155 9197
5155 9302
5155 9811
5155 9841
5156 5243
5156 5756
5156 6304
5156 7752
5156 7937
5156 8295
5156 8307
5156 9533
5157 5336
5157 5930
5157 6038
5157 6418
5157 6716
5157 7168
5157 7291
5157 7468
5157 8018
5157 9604
5158 5400
5158 5594
5158 6032
5158 6116
5158 6568
5158 8336
5158 8577
5158 8590
5158 8888
5158 8932
5158 9167
5158 9219
5158 9779
5159 5170
5159 6179
5159 6276
5159 6438
5159 6458
5159 6726
5159 6732
5159 6983
5159 7374
5159 7437
5159 7498
5159 7589
5159 8085
5159 8165
5159 8197
5159 8266
5159 8434
5159 8612
5159 9360
5159 9400
5159 9461
5159 9874
5159 9880
5160 5461
5160 5976
5160 7053
5160 8269
5160 8989
5160 9538
5161 5535
5161 5540
5161 5617
5161 7357
5161 7920
5161 8019
5161 8301
5161 8906
5161 9378
5162 5176
5162 5546
5162 6222
5162 6430
5162 6571
5162 6870
5162 6898
5162 8328
5162 8418
5162 9307
5162 9550
5162 9713
5162 9861
5163 5800
5163 6072
5163 6794
5163 7196
5163 7868
5163 8108
5163 8405
5163 8760
5163 9181
5163 9215
5163 9398
5163 9837
5164 6403
5164 6494
5164 6927
5164 7337
5164 8101
5164 8144
5164 8347
5164 8357
5164 9203
5165 5604
5165 6569
5165 6919
5165 8343
5165 9170
5166 5657
5166 6086
5166 7397
5166 7971
5166 8417
5167 5871
5167 5919
5167 5992
5167 6209
5167 6785
5167 6802
5167 6865
5167 7094
5167 7442
5167 8214
5167 8307
5167 8568
5167 8636
5167 8763
5167 8958
5167 9024
5167 9062
5167 9520
5167 9598
5168 5223
5168 7616
5168 8564
5168 8935
5168 9857
5169 5199
5169 5320
5169 5927
5169 6093
5169 6378
5169 6782
5169 7077
5169 7262
5169 7473
5169 8197
5169 8358
5169 9106
5169 9190
5170 5406
5170 6138
5170 6732
5170 7589
5170 8085
5170 8868
5170 9360
5171 6437
5171 6738
5171 7005
5171 7080
5171 7696
5171 7729
5171 7959
5171 8298
5171 9800
5172 5759
5172 6155
5172 6970
5172 7037
5172 7664
5172 7935
5172 9538
5173 5835
5173 6178
5173 6494
5173 6927
5173 7337
5173 7823
5173 8030
5173 8347
5173 8469
5174 5186
5174 5379
5174 5611
5174 5632
5174 5737
5174 5977
5174 6118
5174 6323
5174 6970
5174 7120
5174 7482
5174 8082
5174 8360
5174 8456
5174 9086
5174 9563
5174 9660
5175 5945
5175 6362
5175 7949
5175 8819
5175 9252
5175 9258
5175 9302
5175 9532
5175 9648
5176 6127
5176 6150
5176 7445
5176 7770
5176 7927
5176 8038
5176 9692
5177 7815
5177 8149
5177 9512
5177 9958
5178 6099
5178 6545
5178 6733
5178 7797
5178 8603
5178 8801
5179 5803
5179 6264
5179 6444
5179 6594
5179 7559
5179 8443
5179 9007
5180 5436
5180 6047
5180 7058
5180 7142
5180 8421
5180 9630
5181 5221
5181 5227
5181 5336
5181 5932
5181 6075
5181 6188
5181 6267
5181 6407
5181 6827
5181 8302
5181 8521
5181 8825
5181 8905
5181 9153
5182 5531
5182 5628
5182 5719
5182 5720
5182 6877
5182 6987
5182 7210
5182 7402
5182 7460
5182 8169
5182 8934
5182 9771
5182 9892
5183 6597
5183 7170
5183 8368
5183 9378
5183 9974
5184 5455
5184 5907
5184 6570
5184 8032
5184 9458
5185 5349
5185 5450
5185 5517
5185 6416
5185 7389
5185 7666
5185 8489
5185 8914
5186 5290
5186 5469
5186 5831
5186 8288
5186 8446
5186 8606
5186 8709
5186 9005
5186 9351
5186 9756
5186 9759
5187 5969
5187 6066
5187 7803
5187 8375
5187 8421
5187 8717
5187 9996
5188 5796
5188 6223
5188 6621
5188 6831
5188 7661
5188 8386
5188 9252
5189 5324
5189 5501
5189 5513
5189 5532
5189 5661
5189 7876
5189 8420
5189 8685
5189 9094
5189 9133
5189 9471
5189 9499
5189 9983
5190 5549
5190 5936
5190 6289
5190 6521
5190 6878
5190 8112
5190 8407
5190 9480
5190 9715
5190 9760
5190 9919
5191 5221
5191 5285
5191 5985
5191 6431
5191 7724
5191 9093
5191 9886
5192 5936
5192 6414
5192 6465
5192 6486
5192 7225
5192 7809
5192 8038
5192 9424
5192 9890
5193 5252
5193 5816
5193 6609
5193 8208
5193 9795
5194 5742
5194 6175
5194 6194
5194 6221
5194 6236
5194 6431
5194 9601
5194 9772
5194 9886
5195 5479
5195 5803
5195 5827
5195 6134
5195 6309
5195 7054
5195 7516
5195 7671
5195 7931
5195 8020
5195 8330
5195 8384
5195 8413
5195 9525
5195 9697
5195 9936
5196 5573
5196 5644
5196 6236
5196 6554
5196 6907
5196 7089
5196 7289
5196 7451
5196 7848
5196 7928
5196 8391
5197 5947
5197 6048
5197 6397
5197 6609
5197 6938
5197 7081
5197 8376
5197 8457
5198 5612
5198 5617
5198 5837
5198 6445
5198 6843
5198 7104
5198 8100
5198 8962
5198 9091
5198 9297
5198 9357
5198 9397
5198 9476
5199 6414
5199 8302
5199 9500
5200 5727
5200 6296
5200 6414
5200 6420
5200 7031
5200 7786
5200 7877
5200 7922
5200 9114
5200 9277
5200 9592
5200 9649
5201 6532
5201 7663
5201 8866
5202 6363
5202 6571
5202 7100
5202 7506
5202 7952
5202 8067
5202 8435
5202 8540
5202 8854
5202 9145
5202 9223
5202 9919
5203 5556
5203 5578
5203 6412
5203 6701
5203 6737
5203 7240
5203 7878
5203 9218
5203 9761
5204 6117
5204 6415
5204 6721
5204 7391
5204 7993
5204 9243
5204 9267
5204 9455
5204 9999
5205 5222
5205 6820
5205 6908
5205 7763
5206 5319
5206 6284
5206 6618
5206 8229
5206 9019
5207 5305
5207 5445
5207 5467
5207 6016
5207 7045
5207 7283
5207 7296
5207 7459
5207 7912
5207 8280
5207 8333
5207 8479
5207 8649
5207 8811
5207 8974
5207 9148
5207 9152
5207 9162
5207 9299
5207 9497
5207 9555
5207 9842
5208 5861
5208 6392
5208 6429
5208 6547
5208 7095
5208 7882
5208 8467
5208 8996
5208 9229
5209 5373
5209 5810
5209 7064
5209 9979
5210 6262
5210 6591
5210 6604
5210 6826
5210 8559
5210 9541
5210 9945
5211 5446
5211 7034
5211 8239
5211 8878
5211 9181
5212 6194
5212 7046
5212 7576
5212 7774
5212 8647
5212 8742
5212 9931
5212 9954
5212 9969
5213 6387
5213 6613
5213 6631
5213 7157
5213 7604
5213 8100
5213 8868
5213 9396
5213 9432
5213 9615
5213 9914
5214 6399
5214 6553
5214 7707
5214 7827
5214 9116
5214 9552
5215 5226
5215 5273
5215 5597
5215 5703
5215 5780
5215 5810
5215 6070
5215 6108
5215 6165
5215 6295
5215 6350
5215 6456
5215 7000
5215 7593
5215 7777
5215 7831
5215 7856
5215 7969
5215 8732
5215 9015
5215 9330
5215 9694
5215 9957
5216 5506
5216 6149
5216 8109
5216 8300
5216 8325
5216 9306
5216 9464
5217 5478
5217 7357
5217 7956
5217 8463
5217 9409
5218 5509
5218 6421
5218 6482
5218 6986
5218 7395
5218 7703
5218 9045
5218 9098
5218 9315
5218 9957
5219 5388
5219 6065
5219 6430
5219 6887
5219 7053
5219 7366
5219 8717
5219 8966
5219 9297
5219 9423
5219 9764
5220 5482
5220 6470
5220 7277
5220 9997
5221 7006
5221 7616
5221 8825
5221 9394
5222 5414
5222 5469
5222 5824
5222 6074
5222 6468
5222 7091
5222 7301
5222 7985
5222 9552
5223 6139
5223 6429
5223 6481
5223 7108
5223 7297
5223 7622
5223 8414
5223 8947
5224 5370
5224 6011
5224 7266
5224 7515
5224 8631
5224 8728
5224 9926
5224 9927
5224 9991
5225 5452
5225 5849
5225 5997
5225 6047
5225 6137
5225 6499
5225 6535
5225 6816
5225 7119
5225 7431
5225 7632
5225 8138
5225 8247
5225 8588
5225 8861
5226 5550
5226 6291
5226 6303
5226 6626
5226 6853
5226 7436
5226 7449
5226 7577
5226 7749
5226 7983
5226 7987
5226 8177
5226 8476
5226 8731
5226 8909
5227 5397
5227 5493
5227 5896
5227 5938
5227 7519
5227 7591
5227 9946
5228 5639
5228 5862
5228 6225
5228 7110
5228 7375
5228 7817
5228 8876
5228 9111
5228 9630
5229 5705
5229 5727
5229 7552
5229 7793
5229 9195
5229 9256
5229 9803
5230 5687
5230 7651
5230 8108
5230 8606
5230 8936
5231 5922
5231 6155
5231 7145
5231 7660
5231 7851
5231 7859
5231 9169
5231 9219
5231 9370
5232 5345
5232 5622
5232 7565
5232 7970
5232 9056
5232 9259
5232 9763
5233 5420
5233 6029
5233 6571
5233 6654
5233 6693
5233 7681
5233 9466
5234 6482
5234 7035
5234 7450
5234 7539
5234 8092
5234 8696
5235 5317
5235 5716
5235 5948
5235 6418
5235 6785
5235 7180
5235 8638
5235 8974
5235 9142
5235 9195
5235 9200
5236 5996
5236 6226
5236 6369
5236 8975
5236 9136
5237 5242
5237 5404
5237 5580
5237 5618
5237 6374
5237 6445
5237 6893
5237 7485
5237 7547
5237 7792
5237 9241
5237 9493
5238 5243
5238 5692
5238 5991
5238 6667
5238 7201
5238 7376
5238 7442
5238 8023
5238 8239
5238 8451
5238 9092
5238 9288
5238 9597
5238 9671
5238 9707
5238 9772
5238 9836
5239 5452
5239 5513
5239 5895
5239 6318
5239 6865
5239 8646
5240 5335
5240 5435
5240 6246
5240 6451
5240 6514
5240 6715
5240 6798
5240 6842
5240 6908
5240 6925
5240 7238
5240 7693
5240 7943
5240 8176
5240 8363
5240 8699
5240 8820
5240 8912
5240 9170
5240 9259
5240 9273
5240 9599
5240 9799
5240 9826
5241 5765
5241 6734
5241 8131
5241 9347
5241 9777
5241 9939
5242 5255
5242 6576
5242 7472
5242 7511
5242 7637
5242 8028
5242 8466
5242 8486
5242 8578
5242 8759
5242 9154
5242 9571
5242 9601
5242 9672
5242 9861
5243 5845
5243 7557
5243 7793
5243 8221
5243 9458
5244 5544
5244 5876
5244 6655
5244 7949
5244 9669
5245 5443
5245 8272
5245 9043
5245 9932
5246 5345
5246 5462
5246 5849
5246 5881
5246 5990
5246 6202
5246 6816
5246 7624
5246 7815
5246 8623
5246 8834
5246 9131
5246 9231
5246 9328
5246 9591
5246 9597
5246 9682
5246 9900
5246 9927
5246 9970
5247 6867
5247 8059
5247 8169
5247 8200
5247 9509
5247 9542
5247 9619
5248 6280
5249 6170
5249 6265
5249 7321
5249 7610
5249 8615
5249 8760
5249 9079
5249 9121
5249 9378
5249 9380
5250 5269
5250 6460
5250 8082
5250 8334
5250 9365
5251 6984
5251 7343
5251 8094
5251 9096
5251 9707
5252 5900
5252 6274
5252 6928
5252 6982
5252 7327
5252 7882
5252 8043
5252 8648
5252 8941
5252 9876
5253 6404
5253 8119
5253 8196
5253 8758
5253 8910
5253 9298
5253 9357
5253 9505
5254 5612
5254 6651
5254 6810
5254 7905
5254 7962
5254 8122
5254 8742
5254 9093
5254 9793
5255 5690
5255 7802
5255 8466
5255 9154
5256 5305
5256 5350
5256 5418
5256 6028
5256 6199
5256 7113
5256 7246
5256 7412
5256 7484
5256 8183
5256 8534
5256 8676
5256 8735
5256 8845
5256 9100
5257 5513
5257 5662
5257 5872
5257 6112
5257 6390
5257 8150
5257 8317
5257 8797
5257 9162
5257 9630
5257 9744
5257 9799
5258 5530
5258 5708
5258 5871
5258 6128
5258 6889
5258 6925
5258 7670
5258 8015
5258 9140
5258 9185
5258 9825
5258 9896
5259 5926
5259 5969
5259 6834
5259 7173
5259 7950
5259 9263
5259 9313
5259 9716
5259 9721
5260 5284
5260 5887
5260 7760
5260 9330
5260 9590
5260 9857
5261 8310
5262 8179
5262 8235
5262 8696
5262 9415
5262 9489
5262 9652
5263 5456
5263 5918
5263 5934
5263 7304
5263 7406
5263 7673
5264 6501
5264 7130
5264 8144
5264 8167
5264 8913
5264 9181
5265 5756
5265 5797
5265 6331
5265 6402
5265 6408
5265 6876
5265 7114
5265 7609
5265 7797
5265 8346
5265 8721
5265 9669
5265 9900
5266 6085
5266 6747
5266 9189
5266 9262
5266 9552
5267 5446
5267 5776
5267 6594
5267 6974
5267 7791
5267 8223
5267 8564
5267 8603
5268 5505
5268 5615
5268 8162
5268 8412
5268 9825
5269 5537
5269 5915
5269 6254
5269 6429
5269 6804
5269 6831
5269 6999
5269 7163
5269 7731
5269 7851
5269 7886
5269 7928
5269 8089
5269 8247
5269 8339
5269 8581
5269 8620
5269 8711
5269 9250
5269 9778
5270 6155
5270 6845
5270 7277
5270 8044
5270 8250
5270 8644
5270 8929
5270 9372
5271 6116
5271 8618
5271 9324
5271 9970
5272 5391
5272 6434
5272 6958
5272 7406
5272 7696
5272 7792
5272 8007
5272 8188
5272 8229
5272 8359
5272 8369
5272 8629
5272 8841
5272 8938
5272 9141
5272 9214
5272 9234
5272 9580
5273 5336
5273 5766
5273 7291
5273 7851
5273 7895
5273 8240
5273 8563
5273 9307
5273 9842
5274 6646
5274 6861
5274 6915
5274 7358
5274 8829
5274 9552
5275 6726
5275 6915
5275 7057
5276 5576
5276 8155
5276 8716
5276 9692
5276 9773
5277 5991
5277 6049
5277 6881
5277 7460
5277 8803
5277 9155
5277 9270
5277 9452
5277 9899
5277 9900
5278 5976
5278 7394
5278 7806
5278 9078
5279 8000
5279 9892
5280 5309
5280 5748
5280 6619
5280 7617
5280 7643
5280 8078
5280 8192
5280 8327
5280 8628
5280 8635
5280 9210
5280 9308
5280 9475
5280 9834
5281 6088
5281 7427
5281 7507
5281 8560
5281 9374
5281 9467
5282 5315
5282 7201
5282 7278
5282 7340
5282 7429
5282 8562
5282 9949
5283 5751
5283 5822
5283 5878
5283 6726
5283 7102
5283 7734
5284 6432
5284 7760
5284 8054
5284 8328
5284 8755
5284 9648
5284 9716
5284 9743
5284 9860
5284 9965
5285 6541
5285 6647
5285 6996
5285 7421
5285 7445
5285 7866
5285 8575
5285 8769
5285 9483
5286 6669
5286 6951
5286 7116
5286 7645
5286 7772
5286 8679
5286 8926
5287 6046
5287 6919
5287 7736
5287 8377
5287 8917
5287 9373
5288 5700
5288 7323
5288 8982
5288 9242
5288 9499
5288 9715
5288 9920
5289 6103
5289 7208
5289 7872
5289 8072
5289 8542
5289 8606
5289 8611
5289 8754
5289 9015
5289 9256
5289 9596
5290 5962
5290 7048
5290 7207
5290 7245
5290 7620
5290 7721
5290 7833
5290 8046
5290 8446
5291 5652
5291 6254
5291 6418
5291 6633
5291 7662
5291 8471
5291 8736
5292 5302
5292 5355
5292 5444
5292 6893
5292 7057
5292 7683
5292 7839
5292 7844
5292 8296
5292 8590
5292 9561
5292 9808
5294 8143
5294 8184
5294 8325
5294 8761
5294 9585
5295 5306
5295 6499
5295 6686
5295 6701
5295 6705
5295 6737
5295 7240
5295 7799
5295 8246
5295 9212
5295 9761
5296 5517
5296 5613
5296 5675
5296 6516
5296 6702
5296 7556
5296 7558
5296 7827
5296 7992
5296 8096
5296 8347
5296 8464
5296 8733
5296 8760
5296 8805
5296 8809
5296 8881
5296 9316
5296 9517
5297 6804
5297 6977
5297 7203
5297 8183
5297 8383
5298 7545
5298 7584
5298 8115
5298 8778
5298 9382
5299 5702
5299 6295
5299 6544
5299 7764
5299 8057
5299 8088
5299 8200
5299 8357
5299 8650
5299 9697
5299 9768
5299 9863
5300 5519
5300 5869
5300 5884
5300 6097
5300 6579
5300 6692
5300 7403
5300 8826
5300 9658
5301 5621
5301 6879
5301 7404
5301 7428
5301 7953
5301 8032
5301 9339
5301 9853
5302 5368
5302 5680
5302 5681
5302 5996
5302 6026
5302 6058
5302 6158
5302 6736
5302 6873
5302 8607
5302 8758
5302 8794
5302 8806
5302 8994
5302 9045
5302 9061
5302 9112
5302 9258
5302 9526
5302 9807
5303 5456
5303 7518
5303 7584
5303 7710
5303 8394
5303 8849
5303 9322
5303 9754
5304 5803
5304 6574
5304 6787
5304 7748
5304 8221
5304 8334
5304 8568
5304 8831
5304 9344
5304 9458
5305 5319
5305 5854
5305 6465
5305 6877
5305 7113
5305 7770
5305 8676
5305 9211
5306 7057
5306 7074
5306 7840
5306 7987
5306 9298
5307 6172
5307 6266
5307 6468
5307 8083
5307 8680
5307 8804
5307 9267
5307 9405
5307 9445
5308 5556
5308 5681
5308 5933
5308 5992
5308 6480
5308 7397
5308 7990
5308 8545
5308 9518
5309 5852
5309 5932
5309 6034
5309 6451
5309 6619
5309 7642
5309 8327
5309 8402
5309 8881
5309 9668
5310 5798
5310 6150
5310 6314
5310 6893
5310 7081
5310 7455
5310 7482
5310 7902
5310 7912
5310 8021
5310 8047
5310 8167
5310 8909
5310 9607
5311 5790
5311 6035
5311 6137
5311 6150
5311 7339
5311 7597
5311 7622
5311 7699
5311 7718
5311 7720
5311 7761
5311 8280
5311 8847
5311 8944
5311 9817
5311 9846
5312 5574
5312 6477
5312 6879
5312 6965
5312 8007
5312 8428
5312 8438
5312 8634
5313 5557
5313 5585
5313 6120
5313 7449
5313 8548
5313 8686
5313 9076
5314 5955
5314 7602
5314 8182
5314 9283
5315 5387
5315 5618
5315 5836
5315 6825
5315 8562
5315 8606
5315 8894
5315 8985
5315 9531
5315 9583
5315 9746
5315 9949
5316 5695
5316 6414
5316 7625
5316 7991
5316 8392
5316 8952
5317 7732
5318 5701
5318 6491
5318 7319
5318 7694
5318 8020
5318 8291
5318 8314
5318 8704
5318 8778
5318 9493
5318 9879
5319 5450
5319 5675
5319 5677
5319 5750
5319 5839
5319 6216
5319 6338
5319 6846
5319 7076
5319 7448
5319 7508
5319 7939
5319 8071
5319 8597
5319 8850
5319 8980
5319 9235
5319 9338
5319 9632
5319 9741
5320 5455
5320 5725
5320 5924
5320 6414
5320 8867
5321 7056
5321 7063
5321 8566
5321 8849
5321 9018
5321 9838
5322 5375
5322 5682
5322 6005
5322 6335
5322 6402
5322 6871
5322 8577
5322 9170
5322 9525
5323 5700
5323 5711
5323 6362
5323 7660
5323 7754
5324 5661
5324 8007
5324 8625
5324 9094
5324 9621
5325 6066
5325 6697
5325 7635
5325 8988
5325 9281
5325 9456
5326 5498
5326 5649
5326 6952
5326 8521
5326 8791
5326 8818
5326 8877
5326 8974
5326 9010
5326 9202
5326 9415
5326 9524
5326 9650
5326 9916
5327 6641
5327 7102
5327 8302
5327 8533
5327 8722
5327 9179
5327 9208
5327 9258
5328 5577
5328 7558
5328 8489
5328 9009
5328 9218
5328 9607
5328 9882
5329 5426
5329 5599
5329 6093
5329 6681
5329 7521
5329 8227
5329 8407
5329 8891
5329 9330
5329 9418
5329 9632
5330 6014
5330 6188
5330 6529
5330 6920
5330 7233
5330 7234
5330 8096
5330 8549
5330 8560
5330 9838
5331 6960
5331 7679
5331 9183
5331 9850
5331 9931
5332 5354
5332 5516
5332 5532
5332 5925
5332 6179
5332 6302
5332 6348
5332 7140
5332 7233
5332 7543
5332 7859
5332 7979
5332 8341
5332 8647
5332 9226
5332 9438
5332 9634
5332 9770
5333 5792
5333 6305
5333 6468
5333 6770
5333 7339
5333 7647
5333 7854
5333 8101
5333 8311
5333 9244
5334 5873
5334 5895
5334 6777
5334 6863
5334 8344
5334 9125
5334 9503
5335 7762
5335 8461
5335 8666
5335 9081
5336 5377
5336 5845
5336 6053
5336 6227
5336 6455
5336 7081
5336 7208
5336 7210
5336 7405
5336 7686
5336 8240
5336 8563
5336 8634
5336 8882
5336 9300
5336 9307
5336 9842
5337 5350
5337 6084
5337 6925
5337 6987
5337 7945
5337 8503
5337 8563
5337 9366
5337 9748
5337 9814
5338 6579
5338 6976
5338 8377
5338 8956
5338 9402
5338 9561
5339 5927
5339 6423
5339 7328
5339 7456
5339 9385
5340 6132
5340 6894
5340 7096
5340 7229
5340 9113
5340 9398
5341 5477
5341 6945
5341 7747
5341 7806
5341 7934
5341 8581
5341 9541
5342 7612
5342 8036
5342 8689
5342 8967
5343 5577
5343 6005
5343 6915
5343 7057
5343 8385
5343 8840
5343 9173
5344 5615
5344 5697
5344 5731
5344 5758
5344 6146
5344 6151
5344 6339
5344 6361
5344 6436
5344 6491
5344 6535
5344 6813
5344 7322
5344 7990
5344 8288
5344 8495
5344 8967
5344 9307
5345 5622
5345 6240
5345 7073
5345 7145
5345 7975
5345 8004
5345 8680
5345 8930
5345 9684
5345 9885
5346 5946
5346 6036
5346 6259
5346 6407
5346 7643
5346 7830
5346 9256
5346 9505
5346 9822
5347 5662
5347 6796
5347 7049
5347 7200
5347 7583
5347 8076
5347 8541
5347 9331
5348 5634
5348 7552
5348 7643
5348 9098
5348 9116
5348 9783
5349 6459
5349 6826
5349 9211
5349 9498
5350 5420
5350 5423
5350 5481
5350 6084
5350 6815
5350 6941
5350 6987
5350 7124
5350 7503
5350 8541
5350 8646
5350 9344
5351 6690
5351 7676
5351 7848
5351 8315
5351 8906
5351 9138
5351 9454
5351 9597
5352 5654
5352 5751
5352 5876
5352 5889
5352 7455
5352 7980
5352 9338
5353 6853
5353 7178
5353 8057
5353 8550
5354 6108
5354 6206
5354 6229
5354 6289
5354 6841
5354 7008
5354 7426
5354 8191
5354 8305
5354 8430
5354 8509
5354 8514
5354 8621
5354 9170
5354 9544
5354 9675
5354 9895
5355 7124
5355 8085
5355 8581
5355 9483
5356 6456
5356 7354
5356 8648
5356 9602
5357 5370
5357 5443
5357 6200
5357 6776
5357 6806
5357 7429
5357 7537
5357 7579
5357 8256
5357 8461
5357 9667
5358 5468
5358 6330
5358 8061
5358 8282
5358 9480
5358 9902
5359 5494
5359 5795
5359 6532
5359 6921
5359 7429
5359 8307
5359 9083
5360 5522
5360 5688
5360 6658
5360 7016
5360 7527
5360 7896
5360 9261
5360 9854
5361 5372
5361 6315
5361 7472
5361 7838
5361 7952
5361 8031
5361 8799
5361 8894
5361 9764
5362 5687
5362 8102
5362 9414
5363 5519
5363 5952
5363 5969
5363 6270
5363 6636
5363 6675
5363 6801
5363 7754
5363 8412
5363 8484
5363 8550
5363 8897
5363 9081
5364 5435
5364 7482
5364 7727
5365 5446
5365 6208
5365 7142
5365 7670
5365 7694
5365 7738
5365 8102
5365 8535
5365 9110
5365 9342
5365 9617
5365 9621
5365 9734
5366 5532
5366 5843
5366 5886
5366 6186
5366 7415
5366 7635
5366 8140
5366 8402
5366 8412
5366 8420
5366 9172
5366 9214
5366 9917
5366 9951
5367 6568
5367 7448
5367 7574
5367 7714
5367 9245
5367 9528
5368 5702
5368 6654
5368 7679
5368 9399
5369 5433
5369 6309
5369 6324
5369 6406
5369 6450
5369 8034
5369 8392
5369 9290
5370 5803
5370 5975
5370 6004
5370 6276
5370 6309
5370 6316
5370 6729
5370 7042
5370 7073
5370 7172
5370 8362
5370 8720
5370 9170
5370 9344
5370 9367
5370 9890
5370 9966
5370 9977
5371 5833
5371 7180
5371 7932
5371 9701
5372 6211
5372 6466
5372 7997
5372 9357
5372 9623
5372 9720
5373 5391
5373 5601
5373 5676
5373 6075
5373 6218
5373 6869
5373 7680
5373 7782
5373 7836
5373 7865
5373 7928
5373 8674
5373 8808
5373 9088
5373 9281
5373 9288
5373 9467
5373 9574
5373 9699
5373 9800
5373 9812
5373 9857
5374 5739
5374 6073
5374 6189
5374 6547
5374 6719
5374 6903
5374 7459
5374 7608
5374 7685
5374 7772
5374 8110
5374 9414
5374 9670
5375 5636
5375 6005
5375 6031
5375 6402
5375 6845
5375 8547
5375 9363
5376 7874
5376 9466
5376 9950
5377 5676
5377 5780
5377 5891
5377 5895
5377 6368
5377 7237
5377 7369
5377 7396
5377 7942
5377 9021
5377 9345
5377 9517
5378 7885
5378 8289
5378 8990
5378 9307
5379 6143
5379 7548
5379 7682
5379 7790
5379 8440
5379 9147
5379 9861
5380 5614
5380 7852
5380 9025
5380 9555
5381 5567
5381 6043
5381 7097
5381 7243
5381 8252
5382 5590
5382 6246
5382 6276
5382 6668
5382 6740
5382 7444
5382 7663
5382 7930
5382 7964
5382 8066
5382 8527
5382 9394
5383 6224
5383 6237
5383 6292
5383 6936
5383 7064
5383 7306
5383 7391
5383 9116
5383 9856
5384 5529
5384 7030
5384 7089
5384 8176
5384 9417
5384 9480
5384 9820
5385 6045
5385 8656
5385 9285
5385 9584
5386 5580
5386 6108
5386 7021
5386 7130
5386 7547
5386 8235
5387 6190
5387 6657
5387 6717
5387 7278
5387 7382
5387 8099
5387 8917
5387 9130
5387 9189
5387 9257
5387 9462
5388 5414
5388 5632
5388 6037
5388 6522
5388 7982
5388 8453
5388 8653
5388 9387
5388 9545
5388 9623
5389 5545
5389 5920
5389 5972
5389 6130
5389 6365
5389 6619
5389 6838
5389 6905
5389 7261
5389 7336
5389 7833
5389 9460
5389 9714
5389 9776
5390 7055
5390 7273
5390 7585
5390 7642
5390 7840
5390 8337
5390 9948
5391 6749
5391 6867
5391 7131
5391 8308
5391 8481
5391 9484
5391 9765
5391 9901
5392 6128
5392 6927
5392 7653
5392 7822
5392 8127
5392 8944
5392 9563
5392 9566
5392 9821
5393 5780
5393 6116
5393 6221
5393 6789
5393 7942
5393 9324
5393 9488
5393 9665
5394 5521
5394 6507
5394 6528
5394 6813
5394 6902
5394 7176
5394 7774
5394 8615
5394 9130
5394 9202
5394 9679
5395 5883
5395 7680
5395 8033
5396 5774
5396 6560
5396 6871
5396 7071
5396 7095
5396 7112
5396 7516
5396 7672
5396 7763
5396 7973
5396 8078
5396 8848
5396 9088
5396 9367
5396 9619
5396 9853
5397 5470
5397 6726
5397 8140
5397 8829
5397 8885
5397 9067
5397 9449
5398 5597
5398 6503
5398 6537
5398 7633
5398 8243
5398 8313
5398 8384
5398 9321
5398 9881
5399 5731
5399 5826
5399 6117
5399 6120
5399 6312
5399 6399
5399 6428
5399 6988
5399 7037
5399 7502
5399 7786
5399 8291
5399 8311
5399 8322
5399 8483
5399 8536
5399 8577
5399 8769
5399 8919
5399 8980
5399 9393
5399 9528
5399 9532
5399 9821
5399 9843
5400 7022
5400 7048
5400 8435
5400 8879
5400 9287
5401 5739
5401 6398
5401 6555
5401 6613
5401 8834
5401 9379
5402 5625
5402 5773
5402 5835
5402 6165
5402 6721
5402 7320
5402 7542
5402 7604
5402 7840
5402 8056
5402 8105
5402 8163
5402 8248
5402 8696
5402 8841
5402 8972
5402 9054
5402 9189
5402 9251
5402 9315
5402 9554
5402 9661
5402 9733
5402 9925
5402 9931
5403 5796
5403 5837
5403 6526
5403 6642
5403 6873
5403 6910
5403 7386
5403 7436
5403 7495
5403 7506
5403 9126
5403 9223
5403 9679
5403 9834
5404 5730
5404 5897
5404 6461
5404 6462
5404 6469
5404 6528
5404 6832
5404 6950
5404 7077
5404 7150
5404 7268
5404 7305
5404 7328
5404 7586
5404 8309
5404 8421
5404 8545
5404 8702
5404 8807
5404 8936
5404 9085
5404 9288
5404 9620
5404 9671
5405 6318
5405 8549
5405 9295
5405 9823
5406 5962
5406 6080
5406 6542
5406 6571
5406 6754
5406 6877
5406 6919
5406 7024
5406 7513
5406 7768
5406 7784
5406 8183
5406 8222
5406 8420
5406 8534
5406 8876
5406 9357
5407 5879
5407 6756
5407 6824
5407 7168
5407 7507
5407 7880
5407 8053
5407 8310
5407 8320
5407 8427
5407 8538
5407 8656
5407 8671
5407 8916
5407 9050
5407 9502
5407 9804
5407 9885
5408 5456
5408 5591
5408 5602
5408 5726
5408 6421
5408 6438
5408 7673
5409 6105
5409 8198
5409 8509
5410 5476
5410 5764
5410 5837
5410 6169
5410 6188
5410 6321
5410 7996
5410 8448
5410 8563
5411 5805
5411 5848
5411 6403
5411 6429
5411 7053
5411 7493
5411 7772
5411 7794
5411 7923
5411 9798
5412 5576
5412 6006
5412 6120
5412 7186
5412 8071
5412 8233
5412 8553
5412 9396
5412 9639
5413 5713
5413 6091
5413 6418
5413 6937
5413 9573
5413 9738
5414 5441
5414 6244
5414 6573
5414 6769
5414 7289
5414 8906
5414 9596
5414 9946
5415 5737
5415 5957
5415 6476
5415 7225
5415 7417
5415 7945
5415 8755
5415 8867
5415 9516
5415 9971
5415 9974
5416 6032
5416 6111
5416 7454
5416 7540
5416 8563
5416 9134
5417 5610
5417 5766
5417 6152
5417 7285
5417 9852
5418 5671
5418 5934
5418 6255
5418 9325
5418 9393
5419 6026
5419 6194
5419 6372
5419 7302
5419 8494
5419 8900
5420 6182
5420 7479
5420 7889
5420 8571
5421 5711
5421 6371
5421 7885
5421 8681
5421 9689
5421 9968
5422 6245
5422 7514
5422 7705
5422 8058
5422 8645
5422 9806
5422 9862
5423 5593
5423 6135
5423 7513
5423 7537
5423 8810
5423 8917
5423 9002
5423 9416
5423 9617
5423 9689
5424 5505
5424 5615
5424 7916
5424 8352
5424 8875
5424 9800
5424 9825
5425 6041
5425 7054
5425 9093
5425 9602
5425 9694
5425 9842
5426 6507
5426 8227
5426 8407
5426 8718
5426 8825
5426 8845
5426 9271
5426 9330
5426 9418
5427 7506
5427 7572
5427 7708
5427 8195
5427 8904
5427 9253
5428 5808
5428 6369
5428 7075
5428 7100
5428 7402
5429 7764
5429 7848
5429 8336
5429 9867
5430 5648
5430 5701
5430 6372
5430 6641
5430 7691
5431 6125
5431 6579
5431 6597
5431 6773
5431 7037
5431 9804
5431 9889
5432 5864
5432 6830
5432 7514
5432 7578
5432 8188
5432 9193
5433 5456
5433 5472
5433 5500
5433 5546
5433 5802
5433 6042
5433 6102
5433 6405
5433 6610
5433 6914
5433 7028
5433 7130
5433 7300
5433 7385
5433 7534
5433 7791
5433 7921
5433 7944
5433 8101
5433 8408
5433 8518
5433 8678
5433 8765
5433 8870
5433 9178
5433 9306
5433 9590
5433 9626
5433 9779
5433 9902
5433 9909
5434 6170
5434 6372
5434 7362
5434 8126
5434 9203
5434 9681
5435 5752
5435 6115
5435 8121
5435 8838
5435 8952
5435 8996
5435 9118
5435 9600
5436 6102
5436 6155
5436 6365
5436 6557
5436 6841
5436 6994
5436 7161
5436 7384
5436 7469
5436 7498
5436 7813
5436 8029
5436 8921
5436 9464
5437 6280
5437 6970
5437 8004
5437 8111
5437 8703
5437 8733
5437 9283
5438 6095
5438 6245
5438 6639
5438 8633
5438 9112
5438 9348
5438 9678
5438 9834
5439 5677
5439 5954
5439 6263
5439 6341
5439 6820
5439 7969
5439 8778
5439 8783
5439 8878
5439 9750
5440 5450
5440 6013
5440 6738
5440 8166
5440 8524
5440 8958
5440 9937
5441 6811
5441 7264
5441 8063
5441 8656
5441 9519
5442 6023
5442 6081
5442 6743
5442 6896
5442 7693
5442 8246
5442 9319
5442 9663
5442 9692
5442 9867
5443 6383
5443 6465
5443 6686
5443 6776
5443 6877
5443 7131
5443 7537
5443 7579
5443 7643
5443 8243
5443 8256
5443 8492
5443 8929
5443 9124
5443 9227
5443 9528
5444 7260
5444 7425
5444 8500
5444 9285
5444 9731
5445 5886
5445 5933
5445 5986
5445 6331
5445 6429
5445 6836
5445 6919
5445 6924
5445 7100
5445 7166
5445 7221
5445 7278
5445 7426
5445 7427
5445 8384
5445 8459
5445 8706
5445 9005
5445 9011
5445 9050
5445 9066
5445 9077
5445 9082
5445 9352
5445 9540
5445 9559
5445 9685
5445 9808
5445 9886
5446 5675
5446 6247
5446 6849
5446 6915
5446 7376
5446 7378
5446 7461
5446 7811
5446 8466
5446 9085
5446 9226
5446 9715
5447 5863
5447 6647
5447 6841
5447 7173
5447 8583
5447 8609
5447 8989
5447 9700
5448 6250
5448 6433
5448 6622
5448 6637
5448 8632
5448 8839
5448 9327
5449 5683
5449 6499
5449 6509
5449 6986
5449 7683
5449 9875
5450 5615
5450 5765
5450 6112
5450 6152
5450 6280
5450 7597
5450 7625
5450 7677
5450 7729
5450 7758
5450 8085
5450 8232
5450 8914
5450 8933
5450 9337
5450 9536
5450 9541
5451 5492
5451 6149
5451 6288
5451 6327
5451 6466
5451 6710
5451 6733
5451 6787
5451 7275
5451 8058
5451 8549
5451 8891
5451 9005
5451 9256
5452 5861
5452 5915
5452 6397
5452 6583
5452 6715
5452 7014
5452 7016
5452 7130
5452 7373
5452 7877
5452 8468
5452 9039
5452 9222
5452 9923
5453 5710
5453 6065
5453 6155
5453 7802
5453 7866
5453 8067
5453 8829
5453 9006
5453 9690
5454 5716
5454 7993
5454 8083
5454 8175
5454 8328
5454 8565
5454 8887
5454 9170
5455 5829
5455 6070
5455 6126
5455 6414
5455 6713
5455 6743
5455 7104
5455 7460
5455 7746
5455 7872
5455 7924
5455 8005
5455 8117
5455 8166
5455 8225
5455 8226
5455 8393
5455 8719
5455 8878
5455 9022
5455 9119
5455 9736
5455 9880
5456 5594
5456 5918
5456 5934
5456 6163
5456 6235
5456 6689
5456 7053
5456 7304
5456 7673
5456 8040
5456 9796
5457 7820
5457 8395
5457 8692
5457 8867
5457 9152
5457 9268
5458 7524
5458 7540
5458 7591
5458 8391
5458 9450
5459 6402
5459 8200
5459 8296
5459 8403
5459 8513
5459 9274
5459 9541
5460 5601
5460 5778
5460 5990
5460 6212
5460 6282
5460 7192
5460 7235
5460 7378
5460 7524
5460 7678
5460 8716
5460 9058
5460 9267
5460 9403
5460 9500
5461 5760
5461 5976
5461 6581
5461 6725
5461 7946
5461 8444
5462 5627
5462 5947
5462 6610
5462 7354
5462 8273
5462 8654
5463 5841
5463 5938
5463 6485
5463 6602
5463 7448
5463 7626
5463 9160
5464 5695
5464 5725
5464 6111
5464 6189
5464 6301
5464 6432
5464 6571
5464 7041
5464 7058
5464 7463
5464 7639
5464 7717
5464 7862
5464 7914
5464 7957
5464 9036
5464 9184
5464 9480
5464 9492
5464 9639
5464 9739
5464 9967
5465 5558
5465 5673
5465 7539
5465 7960
5465 8599
5466 5631
5466 8098
5466 9017
5466 9446
5466 9833
5467 7732
5467 8942
5467 9039
5467 9149
5468 5703
5468 5764
5468 6024
5468 6368
5468 7264
5468 7283
5468 7519
5468 7730
5468 7884
5468 8061
5468 8088
5468 8210
5468 8257
5468 8282
5468 8431
5468 8542
5468 8814
5468 9113
5468 9480
5469 5540
5469 5738
5469 6004
5469 6318
5469 6468
5469 6509
5469 6531
5469 7091
5469 7689
5469 7839
5469 8783
5469 8906
5469 9969
5470 7233
5470 7386
5470 8710
5470 8768
5470 8949
5470 8952
5470 9807
5470 9973
5471 5690
5471 5749
5471 5936
5471 6343
5471 7914
5471 7969
5471 8904
5471 9948
5472 7300
5472 7302
5472 7967
5472 8034
5472 8450
5472 8520
5472 8544
5472 9649
5473 5573
5473 6358
5473 6554
5473 6588
5473 6635
5473 7363
5473 7381
5473 7602
5473 9415
5473 9451
5473 9530
5474 5724
5474 6357
5474 7035
5474 7064
5474 7673
5474 8389
5474 8913
5474 9539
5475 5766
5475 6329
5475 7838
5475 8447
5475 9210
5476 5747
5476 5761
5476 5810
5476 5817
5476 6401
5476 6724
5476 6740
5476 7297
5476 7373
5476 7689
5476 7692
5476 7752
5476 7951
5476 8754
5476 8787
5476 8964
5476 9129
5476 9717
5476 9783
5477 6078
5477 6339
5477 6630
5477 6638
5477 6994
5477 7201
5477 7964
5477 7984
5477 9011
5477 9647
5477 9735
5477 9774
5478 6423
5478 7188
5478 9153
5479 5827
5479 7121
5479 8038
5479 8491
5479 9244
5479 9525
5480 5841
5480 6423
5480 6745
5480 7556
5480 7832
5480 8243
5480 8348
5480 8458
5480 8488
5480 9302
5480 9835
5480 9983
5481 6098
5481 6567
5481 7052
5481 7837
5481 9785
5482 5646
5482 5855
5482 6259
5482 6471
5482 7689
5482 9267
5482 9330
5482 9738
5483 5516
5483 5519
5483 5865
5483 6023
5483 6406
5483 6876
5483 7121
5483 7182
5483 7648
5483 7656
5483 7900
5483 8077
5483 8123
5483 8395
5483 8711
5483 8722
5483 9482
5483 9740
5483 9874
5483 9938
5484 6100
5484 7563
5484 7653
5484 8116
5484 8372
5484 9449
5484 9834
5485 5490
5485 5609
5485 6409
5485 6677
5485 6843
5485 7388
5485 7540
5485 7686
5486 5966
5486 6682
5486 6734
5486 7263
5486 7733
5486 7849
5486 8043
5486 8152
5486 8394
5486 8413
5486 8420
5486 9035
5486 9107
5486 9253
5486 9302
5486 9317
5486 9499
5486 9819
5487 5759
5487 6970
5487 7515
5487 7664
5487 8537
5487 8732
5487 9516
5488 5902
5488 6139
5488 6197
5488 6225
5488 7759
5488 9292
5489 5566
5489 6108
5489 6947
5489 7021
5489 7962
5489 8711
5489 8765
5489 9277
5489 9896
5490 5841
5490 6380
5490 6409
5490 6677
5490 6728
5490 7027
5490 7280
5490 7686
5490 8007
5490 8564
5490 8722
5490 8914
5490 9090
5490 9216
5490 9255
5490 9787
5491 6203
5491 6355
5491 6438
5491 6522
5491 6803
5491 7564
5491 7993
5491 8328
5491 8857
5492 6288
5492 6733
5492 7105
5492 8283
5492 8447
5492 8832
5492 9256
5492 9275
5493 5501
5493 5896
5493 5905
5493 6308
5493 6793
5493 7591
5493 7634
5493 8219
5493 8777
5493 8983
5493 9067
5493 9259
5493 9403
5493 9635
5493 9783
5494 7429
5494 7980
5494 8072
5494 8240
5494 8307
5494 8800
5494 9921
5494 9945
5495 5584
5495 5743
5495 6600
5495 7215
5495 8128
5495 8178
5495 9446
5496 5538
5496 6344
5496 6616
5496 6872
5496 7070
5496 7631
5496 7802
5496 7964
5496 8162
5496 8202
5496 8294
5496 8665
5496 8762
5496 9620
5496 9856
5497 5951
5497 6836
5497 6937
5497 7295
5497 7309
5497 8067
5497 8419
5497 8797
5497 9314
5497 9380
5497 9567
5497 9816
5498 5500
5498 5824
5498 6952
5498 8667
5498 8791
5498 8974
5498 9125
5498 9863
5499 5700
5499 6386
5499 6899
5499 7671
5499 7964
5499 9622
5500 8418
5500 8524
5501 5564
5501 5881
5501 5889
5501 5890
5501 5954
5501 6026
5501 6455
5501 6871
5501 7434
5501 7492
5501 7922
5501 8095
5501 8463
5501 8949
5501 9511
5501 9673
5501 9717
5502 5980
5502 6964
5502 7350
5502 7933
5502 8460
5502 8668
5502 8850
5502 9753
5503 6593
5503 7049
5503 8650
5503 9554
5503 9594
5504 6727
5504 6771
5504 8083
5504 9048
5504 9499
5504 9585
5504 9883
5505 5511
5505 5615
5505 6125
5505 6367
5505 6497
5505 7456
5505 7578
5505 7617
5505 7916
5505 8245
5505 8410
5505 8570
5505 9818
5505 9825
5506 6746
5506 7073
5506 8109
5506 8414
5506 9320
5506 9395
5506 9464
5506 9623
5507 5722
5507 5947
5507 7118
5507 8049
5507 8164
5507 8264
5507 8403
5507 8452
5507 8520
5507 8653
5507 8831
5507 9294
5508 7799
5509 6050
5509 6482
5509 8561
5509 8853
5509 9242
5509 9615
5510 5671
5510 5810
5510 6136
5510 6258
5510 6977
5510 6984
5510 6992
5510 7128
5510 7146
5510 7150
5510 7514
5510 7567
5510 8066
5510 8165
5510 8294
5510 8664
5510 8808
5511 7173
5511 8312
5511 8379
5511 8609
5511 9790
5512 5569
5512 5833
5512 6501
5512 6792
5512 6975
5512 7340
5512 8138
5512 8419
5512 8546
5512 9467
5513 5606
5513 5628
5513 6149
5513 6194
5513 6196
5513 6199
5513 6255
5513 6471
5513 6724
5513 6988
5513 7085
5513 7759
5513 7789
5513 7849
5513 8175
5513 8304
5513 8971
5513 9027
5513 9101
5513 9292
5513 9439
5513 9681
5513 9687
5513 9777
5514 5804
5514 7453
5514 8931
5514 9316
5514 9432
5515 5815
5515 5936
5515 6376
5515 6875
5515 6905
5515 7213
5516 5707
5516 5865
5516 7648
5516 7661
5516 8788
5516 9365
5516 9482
5517 5774
5517 5906
5517 6995
5517 7595
5517 8720
5517 9398
5517 9466
5518 6919
5518 7351
5518 9029
5518 9124
5518 9838
5519 6098
5519 6483
5519 6658
5519 7931
5520 6012
5520 7224
5520 7912
5520 8442
5520 9019
5520 9325
5520 9995
5521 5833
5521 6777
5521 7419
5521 7464
5521 7928
5521 8147
5521 9183
5522 5559
5522 5688
5522 5819
5522 5967
5522 6591
5522 7285
5522 7291
5522 7461
5522 7649
5522 7890
5522 9261
5522 9626
5523 6114
5523 6314
5523 6942
5523 7125
5523 7454
5523 7999
5523 8313
5523 8415
5523 8502
5523 8814
5523 8954
5523 9179
5523 9196
5523 9209
5523 9257
5523 9625
5524 6122
5524 6684
5524 6984
5524 7275
5524 7870
5524 9175
5524 9997
5525 5890
5525 6289
5525 6625
5525 7008
5525 7953
5525 9061
5525 9339
5525 9544
5526 5711
5526 7535
5526 7788
5526 9678
5526 9689
5526 9926
5527 5540
5527 6267
5527 6401
5527 6535
5527 6560
5527 7317
5527 9369
5527 9494
5527 9907
5528 5689
5528 5772
5528 5847
5528 6833
5528 7651
5528 7861
5528 8143
5528 8820
5529 5850
5529 6107
5529 7245
5529 8062
5529 8156
5529 9822
5530 5553
5530 6127
5530 6287
5530 6465
5530 7240
5530 7625
5530 8043
5530 9775
5530 9857
5530 9938
5531 5550
5531 6360
5531 6542
5531 6692
5531 6783
5531 7012
5531 7626
5531 8567
5531 9673
5531 9880
5532 5881
5532 7023
5532 7486
5532 7876
5532 9094
5533 5613
5533 5850
5533 6516
5533 8760
5533 9345
5533 9360
5533 9483
5534 5574
5534 5919
5534 6257
5534 6922
5534 8066
5534 8398
5534 9519
5535 6185
5535 6446
5535 6660
5535 6747
5535 8777
5535 9262
5536 6903
5536 7308
5537 5655
5537 5948
5537 6505
5537 7555
5537 7698
5537 8342
5537 8566
5537 9120
5537 9681
5538 5580
5538 5608
5538 5665
5538 5782
5538 5894
5538 6466
5538 7002
5538 7074
5538 7133
5538 7658
5538 7709
5538 8715
5538 8953
5538 9375
5538 9470
5538 9592
5538 9623
5538 9958
5539 5819
5539 6042
5539 6446
5539 7045
5539 7640
5539 7964
5539 8018
5539 8523
5539 8795
5539 8849
5540 5597
5540 5872
5540 5971
5540 6242
5540 6676
5540 6702
5540 7080
5540 7745
5540 7903
5540 8011
5540 8202
5540 8312
5540 8647
5540 8757
5540 8944
5540 9070
5540 9360
5540 9898
5540 9907
5541 5761
5541 6065
5541 6260
5541 9318
5542 5736
5542 5945
5542 7949
5542 8422
5542 8819
5542 9201
5543 6552
5543 7440
5543 7634
5543 7653
5543 7925
5543 8397
5543 8894
5543 8914
5543 9031
5543 9566
5544 6972
5544 7911
5544 8318
5544 9659
5545 6698
5545 6741
5545 6772
5545 7100
5545 7528
5545 8280
5545 9549
5545 9743
5545 9776
5545 9884
5546 6082
5546 6222
5546 6430
5546 6870
5546 6925
5546 7695
5546 8399
5546 8730
5546 8855
5546 9550
5546 9864
5547 7208
5547 7305
5547 7437
5547 7466
5547 8596
5547 8888
5547 9036
5547 9925
5547 9970
5548 6201
5548 6953
5548 7563
5548 8181
5548 8965
5548 9630
5549 5869
5549 5875
5549 7458
5549 8336
5549 8820
5549 9708
5550 6037
5550 6246
5550 6495
5550 7657
5550 8056
5550 8060
5550 8826
5550 8997
5550 9128
5550 9515
5550 9828
5550 9982
5551 5985
5551 6010
5551 7992
5551 8246
5551 8570
5551 9128
5552 6753
5552 7573
5552 7587
5552 8008
5552 8079
5553 5872
5553 6098
5553 6544
5553 6719
5553 6919
5553 7442
5553 7461
5553 7507
5553 7879
5553 8013
5553 8087
5553 8921
5553 9108
5553 9115
5553 9305
5553 9483
5553 9770
5553 9800
5553 9984
5554 6394
5554 7397
5554 7802
5554 9257
5554 9277
5554 9939
5555 5718
5555 7250
5555 7998
5555 8396
5555 8697
5555 9114
5556 5677
5556 5771
5556 5954
5556 6093
5556 6854
5556 7937
5556 8564
5556 8783
5557 6120
5557 6916
5557 7088
5557 8548
5558 6240
5558 7474
5558 7539
5558 7915
5558 8091
5558 8493
5558 8538
5558 9139
5558 9169
5558 9352
5558 9450
5558 9637
5558 9693
5558 9887
5559 6476
5559 6993
5559 7527
5559 9261
5560 6807
5560 7347
5560 8390
5560 8424
5560 8769
5560 8794
5560 9336
5560 9635
5561 6198
5561 7822
5561 7893
5561 8016
5561 8918
5561 9187
5562 6372
5562 6475
5562 6594
5562 7287
5562 7382
5562 7627
5562 8015
5562 8496
5562 9304
5563 6287
5563 7447
5563 7875
5563 9247
5563 9541
5563 9574
5564 6428
5564 8463
5565 5888
5565 5968
5565 6073
5565 6547
5565 7141
5565 7608
5565 7685
5565 7834
5565 8110
5565 8422
5565 8848
5565 8984
5565 9698
5566 5716
5566 5945
5566 6368
5566 6497
5566 6673
5566 7064
5566 7100
5566 7867
5566 9694
5566 9719
5567 5569
5567 6115
5567 6404
5567 6531
5567 6966
5567 7954
5567 8081
5567 8607
5567 9681
5568 5580
5568 6047
5568 8215
5568 8225
5568 8719
5568 9468
5568 9668
5569 5601
5569 6210
5569 6215
5569 6359
5569 6633
5569 7172
5569 7176
5569 8138
5569 9008
5569 9088
5569 9186
5569 9960
5570 8254
5570 8541
5570 9024
5571 6189
5571 6516
5571 6603
5571 6633
5571 6653
5571 6837
5571 8072
5571 8196
5571 8625
5572 5963
5572 7631
5572 7798
5572 7816
5572 8073
5572 9522
5572 9540
5572 9543
5572 9825
5572 9902
5572 9908
5572 9945
5573 5922
5573 5950
5573 6907
5573 7623
5573 7721
5573 7848
5573 8368
5573 8665
5573 9008
5573 9386
5574 5657
5574 5724
5574 5931
5574 6791
5574 7145
5574 7705
5574 8065
5574 8287
5574 8732
5574 9259
5574 9714
5575 5630
5575 6008
5575 6536
5575 6813
5575 7953
5575 8943
5575 8982
5575 9153
5575 9982
5576 6497
5576 6535
5576 6576
5576 6975
5576 7039
5576 8849
5576 9663
5577 5693
5577 5723
5577 5857
5577 5995
5577 6062
5577 6108
5577 6228
5577 6437
5577 7680
5577 7900
5577 8031
5577 8663
5577 9460
5577 9694
5578 6384
5578 7022
5578 7240
5578 7724
5578 8138
5578 8392
5578 8564
5578 8603
5578 9121
5578 9906
5579 7394
5579 8194
5579 8671
5579 8706
5579 8824
5580 5618
5580 5674
5580 6179
5580 6374
5580 6544
5580 6606
5580 6893
5580 6902
5580 7118
5580 7300
5580 7547
5580 7792
5580 8370
5580 8463
5580 8513
5580 8575
5580 8870
5580 9024
5580 9039
5580 9247
5580 9998
5581 5692
5581 5881
5581 6277
5581 7208
5581 8683
5581 8794
5582 8193
5583 5774
5583 6184
5583 6319
5583 6929
5583 7253
5583 7467
5583 7471
5583 7854
5583 8116
5583 8141
5583 8203
5583 8837
5583 9485
5583 9609
5584 6673
5584 6761
5584 8032
5584 8472
5584 9253
5584 9293
5584 9761
5585 5623
5585 5806
5585 5967
5585 6996
5585 7023
5585 7028
5585 7284
5585 7784
5585 7888
5585 8058
5585 8366
5585 8451
5585 8517
5585 8713
5585 9289
5586 5698
5586 8342
5586 8468
5586 8872
5586 9682
5587 6443
5587 9229
5587 9605
5588 7626
5588 8082
5588 9756
5588 9902
5589 6414
5589 8050
5589 8176
5589 8485
5589 8514
5589 9180
5590 5980
5590 7316
5590 7473
5590 7784
5590 9066
5590 9676
5591 6280
5591 6650
5591 7317
5591 7534
5591 7567
5591 8421
5591 8619
5592 5869
5592 6754
5592 7722
5592 9699
5592 9806
5593 7869
5593 7987
5593 9187
5593 9209
5593 9408
5593 9729
5594 5745
5594 5800
5594 5967
5594 5978
5594 6726
5594 7022
5594 7056
5594 7428
5594 7516
5594 7585
5594 7639
5594 7903
5594 8406
5594 8516
5594 8528
5594 8696
5594 8972
5594 8987
5594 9170
5594 9282
5594 9431
5595 6563
5595 7298
5596 5608
5596 5644
5596 6692
5596 8274
5596 8422
5596 9240
5596 9437
5597 6134
5597 6905
5597 7157
5597 7840
5597 7905
5597 8232
5597 9338
5597 9713
5597 9728
5597 9840
5598 6148
5598 6310
5598 6411
5598 6919
5598 9092
5599 5836
5599 6813
5599 7645
5599 7919
5599 8298
5599 8426
5599 8495
5599 9061
5599 9287
5599 9955
5600 5978
5600 6205
5600 7615
5600 8820
5600 9033
5600 9227
5601 5756
5601 5946
5601 6693
5601 7643
5601 8585
5601 9505
5601 9824
5602 5832
5602 6421
5602 6505
5602 7422
5603 6809
5603 6972
5603 7406
5603 8199
5603 8472
5603 8529
5604 5800
5604 6519
5604 6654
5604 6748
5604 7455
5604 7505
5604 7676
5604 8727
5604 8990
5605 5945
5605 6909
5605 7385
5605 7476
5605 7940
5605 8457
5606 6232
5606 7318
5606 7387
5606 7832
5606 8253
5606 8409
5606 8681
5606 9130
5606 9168
5606 9273
5607 6885
5607 6891
5607 7560
5607 9009
5608 5665
5608 5782
5608 6400
5608 6466
5608 6966
5608 7018
5608 7150
5608 7242
5608 7383
5608 7965
5608 8715
5608 8953
5608 9050
5608 9509
5608 9513
5608 9592
5608 9984
5609 6223
5609 6962
5609 7767
5609 7897
5609 7929
5609 8225
5609 8669
5609 8708
5609 8891
5609 9398
5610 5767
5610 6437
5610 6997
5610 7285
5610 7378
5610 9393
5610 9852
5611 5851
5611 6560
5611 7221
5611 8417
5611 8574
5611 8760
5611 9001
5611 9455
5612 5731
5612 7308
5612 7800
5612 7928
5612 8310
5612 8328
5612 9502
5612 9637
5613 6516
5613 6702
5613 6837
5613 7992
5613 8496
5613 8760
5613 8894
5614 6144
5614 7178
5614 7395
5614 7540
5614 8803
5614 9173
5615 6367
5615 6451
5615 6799
5615 7828
5615 7914
5615 7916
5615 8218
5615 8731
5615 8794
5615 8878
5615 9561
5615 9583
5615 9730
5615 9825
5615 9910
5615 9995
5616 6128
5616 6612
5616 7259
5616 7361
5616 8386
5617 5620
5617 5968
5617 6804
5617 8301
5617 8396
5617 8906
5617 9138
5618 5674
5618 5744
5618 6893
5618 7357
5618 7547
5618 7792
5618 8925
5618 9804
5619 5959
5619 6693
5619 7701
5619 8355
5619 8386
5619 9100
5620 5622
5620 6176
5620 6285
5620 6339
5620 6343
5620 6697
5620 6816
5620 7197
5620 7241
5620 7666
5620 7691
5620 7771
5620 7894
5620 7914
5620 8036
5620 8197
5620 8228
5620 8367
5620 8411
5620 8990
5620 9306
5620 9922
5620 9974
5621 5946
5621 7152
5621 7282
5621 7380
5621 7458
5621 7528
5621 9643
5622 6240
5622 7240
5622 7514
5622 7913
5622 8194
5622 8538
5622 8825
5622 9083
5622 9684
5623 6406
5623 7922
5623 7994
5623 8688
5623 9331
5624 5635
5624 7366
5624 7796
5624 7926
5624 8149
5624 8891
5624 9927
5625 5934
5625 6431
5625 6533
5626 5868
5626 6322
5626 6905
5626 9595
5626 9681
5626 9843
5626 9973
5627 6668
5627 6912
5627 7292
5627 7342
5627 7584
5627 7607
5627 7977
5627 8310
5627 9033
5627 9114
5628 6534
5628 6766
5628 7124
5628 7777
5628 8312
5628 9241
5629 5714
5629 5891
5629 8235
5629 8580
5630 5854
5630 5937
5630 6076
5630 6815
5630 8208
5630 8398
5630 8759
5630 9972
5631 6271
5631 6609
5631 7778
5631 7794
5631 8098
5631 8895
5631 9008
5631 9017
5631 9364
5631 9812
5631 9833
5632 6323
5632 7120
5632 7259
5632 7831
5633 6653
5633 7134
5633 7566
5633 7773
5633 7837
5633 9391
5634 5656
5634 5815
5634 5863
5634 6353
5634 7313
5634 9359
5635 6436
5635 7366
5635 7385
5635 8167
5635 8181
5635 8366
5635 9927
5636 6010
5636 6334
5636 6693
5636 8668
5636 9013
5636 9722
5637 6552
5637 7099
5637 7312
5637 7940
5637 8389
5637 8668
5637 9035
5637 9513
5637 9721
5637 9740
5637 9977
5638 6497
5638 7256
5638 7289
5638 7408
5638 8177
5638 8343
5638 8401
5638 8432
5638 8452
5638 9690
5638 9717
5639 5643
5639 5744
5639 6133
5639 6152
5639 6192
5639 6196
5639 6226
5639 6393
5639 6424
5639 6549
5639 6718
5639 7206
5639 7942
5639 7950
5639 7987
5639 8040
5639 8195
5639 8209
5639 8772
5639 9903
5640 6325
5640 6390
5640 7540
5640 7548
5640 8421
5640 8438
5641 6466
5641 6712
5641 6856
5641 7060
5641 7752
5641 8024
5641 8609
5642 6207
5642 6243
5642 6499
5642 7407
5642 7763
5642 7973
5642 9590
5643 5766
5643 6635
5643 7221
5643 7245
5643 7627
5643 7669
5643 8567
5643 9001
5643 9509
5644 6997
5644 6998
5644 7067
5644 7901
5644 8126
5644 8534
5644 8861
5644 9594
5645 5780
5645 7867
5645 9483
5646 6005
5646 6532
5646 7788
5646 8630
5647 5744
5647 6575
5647 7817
5647 7820
5647 7845
5647 8777
5648 5701
5648 6284
5648 7002
5648 7401
5648 8163
5648 8171
5648 8940
5648 9522
5648 9549
5648 9704
5648 9717
5648 9805
5648 9891
5649 5743
5649 5963
5649 5997
5649 6063
5649 6098
5649 6201
5649 6358
5649 6952
5649 7409
5649 7736
5649 8248
5649 8425
5649 8791
5649 9359
5650 5854
5650 6903
5650 8068
5650 9059
5651 5741
5651 5870
5651 6758
5651 7679
5651 9161
5651 9692
5652 5733
5652 5975
5652 5990
5652 6154
5652 6180
5652 7079
5652 7840
5652 7888
5652 7999
5652 8019
5652 8126
5652 8329
5652 8650
5652 9149
5652 9459
5652 9780
5652 9849
5653 6629
5653 7384
5653 7724
5653 8853
5653 9443
5654 6370
5654 6601
5654 6650
5654 6746
5654 7448
5654 7679
5654 7838
5654 7980
5654 8655
5654 9725
5655 6964
5655 8626
5655 9344
5655 9610
5656 7343
5656 8820
5656 8974
5656 9185
5656 9501
5656 9769
5657 5923
5657 6048
5657 6331
5657 6624
5657 6653
5657 6947
5657 6953
5657 7122
5657 7246
5657 7397
5657 7561
5657 8026
5657 8495
5657 8616
5657 9337
5658 5871
5658 5948
5658 6150
5658 7063
5658 7567
5658 8017
5658 8167
5658 9273
5659 5722
5659 7114
5659 7435
5659 7707
5659 7780
5659 8806
5659 9275
5659 9715
5659 9961
5660 6253
5660 7059
5660 7463
5660 7589
5660 7999
5660 8016
5660 8873
5660 9248
5661 6355
5661 7063
5661 7876
5661 8353
5661 8685
5661 8839
5661 8977
5661 9094
5661 9133
5661 9581
5662 5691
5662 7205
5662 8781
5662 9633
5663 7079
5663 7552
5663 7904
5663 8033
5663 8292
5663 8890
5664 6187
5664 6359
5664 6508
5664 6823
5664 7090
5664 7288
5664 7699
5664 8014
5664 8197
5664 9051
5664 9792
5665 5782
5665 6211
5665 6466
5665 6609
5665 6832
5665 7002
5665 8759
5665 9055
5665 9447
5665 9482
5665 9623
5666 7501
5666 8699
5666 8956
5666 9033
5666 9994
5667 5985
5667 6032
5667 6160
5667 8039
5667 8190
5667 9295
5667 9612
5668 5867
5668 6266
5668 6948
5668 6983
5668 7636
5668 7988
5668 8983
5668 9174
5668 9621
5668 9737
5669 6955
5669 7676
5669 9170
5669 9650
5670 6076
5670 6487
5670 6991
5670 7198
5670 7515
5670 7981
5671 6999
5671 7514
5671 7871
5671 8005
5671 8345
5671 8883
5671 9393
5672 7958
5672 8165
5672 8641
5672 8710
5673 5728
5673 6190
5673 6524
5673 6804
5673 6893
5673 6909
5673 7251
5673 7556
5673 7617
5673 7904
5673 7920
5673 8476
5673 9066
5673 9119
5673 9248
5673 9702
5674 7792
5674 8566
5674 9134
5674 9456
5675 5707
5675 5822
5675 5870
5675 6434
5675 6508
5675 6707
5675 6939
5675 7045
5675 7214
5675 7418
5675 7438
5675 7604
5675 7805
5675 8614
5675 8902
5675 9437
5675 9442
5675 9705
5676 8674
5676 9088
5676 9288
5676 9857
5677 5771
5677 6349
5677 6393
5677 6625
5677 7484
5677 7945
5677 7969
5677 8718
5677 8891
5678 7896
5678 9849
5679 5865
5679 6731
5679 7056
5679 7922
5679 8248
5679 8310
5679 8870
5679 8946
5679 9126
5679 9923
5680 5830
5680 6058
5680 6303
5680 6543
5680 6621
5680 6959
5680 7179
5680 8178
5680 8670
5680 9044
5680 9127
5680 9489
5681 6570
5681 7016
5681 7547
5681 7990
5681 8026
5681 8083
5681 8366
5681 8507
5681 8545
5681 8845
5681 8911
5681 9040
5681 9076
5681 9206
5681 9518
5681 9884
5681 9893
5682 6773
5682 7794
5682 8399
5682 8531
5682 9016
5682 9292
5683 5702
5683 6318
5683 6418
5683 7980
5683 8138
5683 8569
5683 8901
5683 9298
5683 9538
5684 6863
5684 6941
5684 7205
5684 7939
5684 8733
5684 8894
5684 9114
5685 6089
5685 6140
5685 6571
5685 7357
5685 7652
5685 9017
5685 9232
5685 9377
5685 9423
5686 7046
5686 7066
5686 7358
5686 7694
5686 8097
5686 9253
5687 6670
5687 7046
5687 7385
5687 7651
5687 8293
5687 8595
5687 8606
5687 9198
5687 9532
5688 5780
5688 7318
5688 8058
5689 6064
5689 6253
5689 6891
5689 7649
5689 8527
5689 8936
5690 5983
5690 7453
5690 7973
5690 9822
5691 5745
5691 5939
5691 6770
5691 6961
5691 7273
5691 7651
5691 7915
5691 7935
5691 8453
5691 9633
5691 9656
5691 9800
5691 9942
5692 7229
5692 7429
5692 7663
5692 7810
5692 7962
5692 9037
5692 9561
5693 5743
5693 5857
5693 5919
5693 6062
5693 7695
5693 7900
5693 7904
5693 7934
5694 6960
5694 7021
5694 7156
5694 8849
5694 9067
5694 9904
5695 6727
5695 7230
5695 8374
5695 9048
5695 9387
5695 9984
5696 5776
5696 6754
5696 6780
5696 7352
5696 8264
5696 9338
5697 6171
5697 6197
5697 6282
5697 6361
5697 6436
5697 6642
5697 6892
5697 7132
5697 7149
5697 7297
5697 7406
5697 7953
5697 8967
5697 9229
5698 5774
5698 5978
5698 6024
5698 6174
5698 6353
5698 7223
5698 7291
5698 7422
5698 7496
5698 7562
5698 7732
5698 8268
5698 8711
5698 8872
5698 9098
5698 9682
5698 9885
5699 6614
5699 6813
5699 9470
5699 9845
5700 5860
5700 6036
5700 6386
5700 6656
5700 6693
5700 6899
5700 6932
5700 7341
5700 7671
5700 7764
5700 9660
5701 6284
5701 6378
5701 6626
5701 7217
5701 7805
5702 5781
5702 6042
5702 6394
5702 6627
5702 6639
5702 7098
5702 7150
5702 7557
5702 8226
5702 8243
5702 8607
5702 8629
5702 8699
5702 8716
5702 8829
5702 9219
5702 9295
5702 9393
5702 9403
5702 9968
5703 6072
5703 6077
5703 7290
5703 7381
5703 7588
5703 8435
5703 8508
5703 8574
5703 9276
5703 9857
5704 5991
5704 7133
5704 7163
5704 7235
5704 7571
5704 8029
5704 8063
5704 8738
5704 9159
5704 9810
5705 6593
5705 6940
5705 7279
5705 7774
5705 8664
5705 9205
5706 5739
5706 5820
5706 5935
5706 6017
5706 7220
5706 8346
5706 8572
5706 8636
5706 9156
5706 9510
5706 9716
5707 6056
5707 6477
5707 6500
5707 6940
5707 8828
5707 8900
5707 8907
5707 9063
5708 6413
5708 7156
5709 7291
5709 9020
5709 9529
5710 5855
5710 6373
5710 6437
5710 7642
5710 7650
5710 8165
5710 8573
5710 9364
5710 9895
5711 6406
5711 6470
5711 7328
5711 7649
5711 8150
5711 9061
5711 9581
5711 9689
5711 9983
5712 5829
5712 5958
5712 6235
5712 8602
5712 8940
5712 9076
5712 9158
5712 9208
5712 9266
5712 9731
5713 6372
5713 6593
5713 6864
5713 7947
5713 8031
5713 8515
5714 6867
5714 6925
5714 7438
5714 8477
5714 9435
5715 7025
5715 7202
5715 8026
5716 5821
5716 6076
5716 6389
5716 6488
5716 6497
5716 6673
5716 6680
5716 6772
5716 6982
5716 7109
5716 7496
5716 7512
5716 7762
5716 7948
5716 8635
5716 8641
5716 9027
5716 9240
5716 9286
5716 9719
5716 9856
5717 7291
5717 8026
5717 8636
5717 8809
5718 7068
5718 7427
5718 8176
5718 8697
5718 8998
5718 9946
5719 6309
5719 6876
5719 7361
5719 7477
5719 7780
5719 7845
5719 7894
5719 8714
5719 8939
5719 9208
5720 6775
5720 7402
5720 7766
5720 8328
5720 8867
5720 8932
5720 8934
5720 9771
5721 6406
5721 7159
5721 7526
5721 9132
5721 9781
5721 9852
5722 6037
5722 6559
5722 7984
5722 8364
5722 9371
5722 9549
5723 6068
5723 6347
5723 6351
5723 6707
5723 6814
5723 7714
5723 7946
5723 8487
5723 8505
5723 8647
5723 9060
5723 9678
5724 5990
5724 6086
5724 6162
5724 6849
5724 7055
5724 7704
5724 8378
5724 8742
5724 9025
5724 9155
5724 9485
5724 9878
5725 6723
5725 6809
5725 6913
5725 8563
5726 5776
5726 6274
5726 6421
5726 7885
5726 8098
5726 8156
5727 6296
5727 8941
5727 9968
5728 6489
5728 8734
5728 9291
5728 9869
5729 5815
5729 6398
5729 7010
5729 7297
5729 7324
5729 7510
5729 8372
5729 9649
5729 9802
5730 5797
5730 6064
5730 6959
5730 7649
5730 7720
5730 7828
5730 8064
5730 8214
5730 8364
5730 8666
5730 8690
5730 8737
5730 8852
5730 9385
5730 9467
5730 9517
5730 9942
5731 6312
5731 7267
5731 7362
5731 7700
5731 8289
5731 8588
5731 8769
5731 9390
5732 6957
5732 8669
5732 9731
5733 7683
5733 8459
5733 8727
5733 9026
5734 5757
5734 6091
5734 6844
5734 8178
5734 8419
5734 9185
5735 6255
5735 6757
5735 8102
5735 8303
5735 8450
5736 5988
5736 7731
5736 7750
5736 8639
5736 9426
5737 5851
5737 5932
5737 6476
5737 6595
5737 8656
5737 8670
5737 8716
5737 8827
5737 9516
5737 9743
5738 5907
5738 6042
5738 7069
5738 7312
5738 7368
5738 7613
5738 7824
5738 7913
5738 8138
5738 8316
5738 8800
5738 8952
5738 9203
5738 9891
5738 9961
5739 8337
5739 8482
5740 7222
5740 8551
5740 8709
5740 9561
5740 9775
5741 7679
5741 8602
5741 9161
5742 5969
5742 6226
5742 8811
5742 9216
5742 9870
5743 5889
5743 5987
5743 6346
5743 6719
5743 7045
5743 7341
5743 7496
5743 7501
5743 7942
5743 8263
5743 8604
5744 6525
5744 6636
5744 6771
5744 6773
5744 7077
5744 8181
5745 6337
5745 7180
5745 7332
5745 7531
5745 7585
5745 8193
5745 9081
5745 9230
5745 9474
5746 6302
5746 6381
5746 6954
5746 7597
5746 7752
5747 6046
5747 7087
5747 7356
5747 8139
5747 8167
5747 8698
5747 8894
5747 9969
5748 7248
5748 7448
5748 7653
5748 7691
5748 8169
5748 8453
5748 9170
5748 9247
5749 5927
5749 6083
5749 6274
5749 6632
5749 6930
5749 7194
5749 7239
5749 7249
5749 7355
5749 7596
5749 7650
5749 8233
5749 8234
5749 9272
5749 9894
5750 6086
5750 6162
5750 6485
5750 6486
5750 6708
5750 7180
5750 7424
5750 9155
5750 9647
5751 5824
5751 5878
5751 5899
5751 6215
5751 6726
5751 7548
5751 7582
5751 7659
5751 8007
5751 8372
5751 8436
5751 8974
5751 9073
5751 9293
5751 9387
5752 6656
5752 7341
5752 7401
5752 8952
5752 9196
5753 6219
5753 7433
5753 7592
5753 8929
5753 9667
5753 9937
5754 7196
5754 7294
5754 7340
5754 7704
5754 8045
5754 8218
5754 8800
5754 9583
5754 9923
5755 6007
5755 6254
5755 6878
5755 6902
5755 7096
5755 7332
5755 7788
5755 9499
5756 6049
5756 6234
5756 6247
5756 6540
5756 6983
5756 7093
5756 7391
5756 7692
5756 7767
5756 7808
5756 7875
5756 8524
5756 8570
5756 8849
5756 9062
5756 9206
5756 9433
5756 9672
5756 9788
5757 5948
5757 6755
5757 7491
5757 7543
5757 8419
5757 8944
5757 9185
5757 9368
5758 5909
5758 5940
5758 7197
5758 7235
5758 7256
5758 7439
5758 7507
5758 8580
5758 8749
5758 8775
5758 9499
5759 5997
5759 6140
5759 6920
5759 7664
5759 8090
5759 8291
5759 8759
5759 9495
5759 9795
5760 6079
5760 6273
5760 6560
5760 8499
5760 8936
5760 8964
5760 9424
5761 5801
5761 6236
5761 6256
5761 7070
5761 7473
5761 7552
5761 7657
5761 7816
5761 8040
5761 8300
5761 9321
5761 9340
5761 9573
5761 9631
5761 9662
5762 6277
5762 6509
5762 6569
5762 6966
5762 7204
5762 7936
5762 9233
5762 9351
5762 9704
5762 9989
5763 6993
5763 7220
5763 8097
5763 8307
5764 5900
5764 6151
5764 6248
5764 6860
5764 6868
5764 6999
5764 7302
5764 7551
5764 7923
5764 8152
5764 8175
5764 8718
5764 9161
5764 9536
5764 9743
5764 9841
5765 5805
5765 6124
5765 8131
5765 8257
5765 8418
5765 9207
5765 9499
5765 9509
5766 5935
5766 6862
5766 6901
5766 7351
5766 7355
5766 7536
5766 7932
5766 8275
5766 8284
5766 8579
5766 9719
5767 6571
5767 6693
5767 8039
5767 9466
5768 5845
5768 5961
5768 6571
5768 6713
5768 6869
5768 7119
5768 7269
5768 8353
5769 6369
5769 6592
5769 7059
5769 8072
5769 8430
5769 8692
5769 9670
5769 9767
5770 6656
5770 6772
5770 8075
5770 8114
5770 8670
5770 9277
5771 5954
5771 8993
5771 9126
5771 9298
5772 5862
5772 6418
5772 6503
5772 6785
5772 7973
5772 8156
5772 8454
5772 9628
5773 6763
5773 7447
5774 6220
5774 6732
5774 7635
5774 7831
5774 8303
5774 9258
5774 9468
5775 6428
5775 7940
5775 8628
5775 8868
5775 8917
5775 9539
5775 9741
5775 9829
5776 6209
5776 6489
5776 6508
5776 6754
5776 6818
5776 6836
5776 6962
5776 7331
5776 7375
5776 7759
5776 8004
5776 8301
5776 8388
5776 8390
5776 8567
5776 8790
5776 8920
5776 8981
5776 9026
5776 9681
5777 6534
5777 6678
5777 7328
5778 6117
5778 7145
5778 7556
5778 8078
5778 8450
5778 8630
5778 8843
5778 9058
5778 9210
5779 6269
5779 6359
5779 8449
5779 9320
5780 5895
5780 6029
5780 6223
5780 6498
5780 7154
5780 7169
5780 7506
5780 7520
5780 7580
5780 7762
5780 7971
5780 8202
5780 9039
5780 9198
5780 9747
5780 9955
5781 6196
5781 7557
5781 8607
5781 8617
5781 8829
5781 9403
5781 9462
5782 5881
5782 5922
5782 5961
5782 6211
5782 6230
5782 6506
5782 6718
5782 7002
5782 7058
5782 7658
5782 7676
5782 7976
5782 8017
5782 8085
5782 8715
5782 8953
5782 9349
5782 9519
5782 9592
5782 9623
5782 9720
5782 9931
5782 9946
5782 9954
5783 6136
5783 6972
5783 7461
5783 7993
5783 8726
5783 8887
5783 9721
5784 6359
5784 6587
5784 6983
5784 7047
5784 7217
5784 8551
5784 8664
5784 8998
5784 9674
5784 9714
5785 5801
5785 9802
5785 9939
5786 7107
5786 7949
5786 8861
5787 5996
5787 6100
5787 7031
5787 7107
5787 7978
5787 8116
5787 8634
5787 9426
5787 9449
5787 9930
5788 5893
5788 6343
5788 6477
5788 6583
5788 7574
5788 7903
5788 8694
5788 8924
5788 9279
5789 6506
5789 9067
5789 9201
5789 9208
5789 9339
5790 5819
5790 6035
5790 8302
5790 8852
5791 6706
5791 6837
5791 7295
5791 7313
5791 8222
5791 8384
5791 8943
5792 5842
5792 5965
5792 6112
5792 6507
5792 7059
5792 8800
5792 9910
5793 6108
5793 6390
5793 6620
5793 6834
5793 6968
5793 7021
5793 7691
5793 9082
5793 9606
5793 9975
5794 5893
5794 6197
5794 6749
5794 9626
5794 9834
5794 9872
5795 6151
5795 6208
5795 6859
5795 7429
5795 8225
5795 8372
5795 8375
5795 8943
5795 9186
5796 6642
5796 6873
5796 6910
5796 7436
5796 7459
5796 7506
5796 8455
5796 8696
5796 9126
5796 9834
5797 5936
5797 6371
5797 6599
5797 6848
5797 7970
5797 8462
5797 9005
5798 6005
5798 6075
5798 6214
5798 6942
5798 8541
5798 8560
5798 8970
5798 9434
5798 9789
5799 6190
5799 6299
5799 8565
5799 9350
5799 9575
5800 6162
5800 6775
5800 7035
5800 7402
5800 7460
5800 7472
5800 7629
5800 8169
5800 8586
5800 8934
5800 8935
5800 9741
5800 9771
5801 6167
5801 6316
5801 6542
5801 6877
5801 7297
5801 7954
5801 7978
5801 8058
5801 8310
5801 8348
5801 8742
5801 9911
5801 9912
5801 9992
5802 5910
5802 6273
5802 7152
5802 7218
5802 7681
5802 8014
5802 8278
5802 8587
5802 8856
5802 9092
5803 6163
5803 6673
5803 6903
5803 6991
5803 7353
5803 7428
5803 7443
5803 7476
5803 7806
5803 7901
5803 8783
5803 8806
5803 8869
5803 9144
5803 9188
5803 9467
5803 9651
5803 9655
5803 9697
5803 9754
5803 9834
5804 5891
5804 6813
5804 6860
5804 8392
5804 8798
5805 6209
5805 6591
5805 6919
5805 7705
5805 8541
5805 8657
5805 9124
5805 9602
5805 9838
5805 9841
5805 9887
5806 6755
5806 7023
5806 7213
5806 7724
5806 7784
5806 9671
5807 6022
5807 7392
5807 7936
5807 7976
5807 8659
5807 9476
5807 9480
5808 5886
5808 5900
5808 5907
5808 5984
5808 6185
5808 6236
5808 6865
5808 7190
5808 7362
5808 8125
5808 8507
5809 6224
5809 7053
5809 7341
5809 7977
5809 7982
5809 8075
5809 9206
5809 9465
5810 6077
5810 6258
5810 6449
5810 6547
5810 7492
5810 7823
5810 7825
5810 8092
5810 8426
5810 8626
5810 8664
5810 9522
5811 5837
5811 7370
5811 7503
5811 7571
5811 7734
5811 7791
5811 8548
5811 8992
5811 9098
5811 9506
5811 9834
5812 6783
5812 9014
5812 9747
5813 6415
5813 6792
5813 7800
5813 7949
5813 8759
5813 9009
5813 9131
5814 6486
5814 6864
5814 7797
5814 8363
5814 8897
5814 9250
5814 9296
5814 9689
5815 6014
5815 6148
5815 6699
5815 7354
5815 7368
5815 7514
5815 7669
5815 8134
5815 8302
5815 9234
5815 9361
5815 9692
5816 6569
5816 8552
5816 8569
5816 9038
5816 9697
5817 6065
5817 6567
5817 7689
5817 7772
5817 8434
5817 9576
5817 9717
5818 5957
5818 6234
5818 6455
5818 7549
5818 8026
5818 8538
5818 9524
5818 9908
5819 5823
5819 5836
5819 5889
5819 5939
5819 6020
5819 6121
5819 6229
5819 6643
5819 7226
5819 8108
5819 8628
5819 8737
5819 8928
5819 9127
5819 9187
5819 9849
5820 5980
5820 6005
5820 6572
5820 7000
5820 8484
5820 9508
5820 9597
5821 7914
5821 8179
5821 8365
5821 9005
5821 9797
5821 9879
5822 6286
5822 7487
5822 7641
5822 8418
5822 8496
5822 8801
5822 8837
5822 9863
5823 6121
5823 8628
5823 8737
5823 9260
5824 6326
5824 7022
5824 7718
5824 8086
5824 8160
5824 9420
5825 7413
5825 9905
5826 5918
5826 6415
5826 6907
5826 6945
5826 7240
5826 8720
5827 6755
5827 6822
5827 7366
5827 7516
5827 7685
5827 8084
5827 8474
5827 9384
5827 9948
5828 5887
5828 6714
5828 7903
5828 8885
5828 9378
5828 9663
5828 9779
5829 6161
5829 6767
5829 6780
5829 6986
5829 7155
5829 7308
5829 7387
5829 8213
5829 8220
5829 8224
5829 8323
5829 8410
5829 8701
5829 8860
5829 9167
5829 9359
5829 9611
5829 9694
5829 9767
5829 9851
5830 7188
5830 8133
5830 8178
5830 9247
5830 9526
5830 9876
5830 9902
5831 6201
5831 6423
5831 6657
5831 7045
5831 7721
5831 7980
5831 8046
5832 6880
5832 8073
5832 8422
5832 9125
5832 9396
5833 8045
5833 8049
5833 8388
5833 8886
5833 9423
5833 9964
5834 5907
5834 6391
5834 6745
5834 6804
5834 6963
5834 7328
5834 8053
5834 8449
5835 5947
5835 6514
5835 6721
5835 6974
5835 8318
5835 9002
5835 9251
5835 9305
5835 9661
5835 9925
5836 7414
5836 8030
5836 8034
5836 8601
5836 8824
5836 9037
5837 5925
5837 6712
5837 6848
5837 7319
5837 7610
5837 7762
5837 7801
5837 8041
5837 8251
5837 8274
5837 8467
5837 8696
5837 8754
5837 9069
5837 9489
5837 9778
5838 6364
5838 6934
5838 7154
5838 8018
5838 9241
5839 6218
5839 6407
5839 6568
5839 6629
5839 8153
5839 8552
5839 8634
5839 9064
5839 9489
5839 9608
5839 9907
5840 7003
5840 8172
5840 8453
5841 6602
5841 7015
5841 8022
5841 8582
5841 8601
5841 8751
5841 8858
5841 8945
5841 9160
5841 9590
5841 9791
5842 6155
5842 7756
5842 9773
5842 9910
5843 6339
5843 6898
5844 6639
5844 6844
5844 7161
5844 7415
5844 7691
5844 8383
5844 9016
5844 9130
5844 9650
5844 9888
5844 9974
5845 5905
5845 5961
5845 6261
5845 6453
5845 7626
5845 8353
5845 8439
5845 8569
5845 8652
5845 8851
5845 8892
5845 9181
5845 9326
5845 9635
5845 9636
5845 9676
5845 9824
5845 9989
5846 6285
5846 7247
5846 7855
5846 8124
5846 8335
5846 8785
5846 9035
5846 9114
5847 6223
5847 7037
5847 8791
5847 9126
5847 9812
5848 6622
5848 8108
5848 8372
5849 7741
5849 7795
5849 8072
5849 8112
5849 8699
5849 9597
5849 9979
5850 7964
5850 8567
5851 6425
5851 6594
5851 6874
5851 7250
5851 7608
5851 7880
5851 7920
5851 8088
5851 8311
5851 8355
5851 8903
5851 9053
5851 9244
5851 9264
5851 9318
5851 9580
5851 9644
5852 7628
5852 8061
5852 8170
5852 8681
5852 9425
5853 5969
5853 8778
5853 9493
5854 5925
5854 6020
5854 6289
5854 7221
5854 7255
5854 7565
5854 7664
5854 7831
5854 8039
5854 8068
5854 8547
5854 8770
5854 8925
5854 9027
5854 9060
5854 9854
5855 5924
5855 5928
5855 6353
5855 6373
5855 6989
5855 7650
5855 8019
5855 8213
5855 8412
5855 8885
5855 8893
5855 9364
5855 9473
5855 9580
5856 6000
5856 6307
5856 6729
5856 6813
5856 7104
5856 7211
5856 8412
5856 8495
5856 8931
5856 9311
5856 9409
5857 6062
5857 6663
5857 8336
5857 8461
5857 8759
5857 9088
5858 8323
5858 8642
5858 8716
5858 8818
5858 9108
5858 9624
5858 9657
5858 9896
5859 5936
5859 6064
5859 6530
5859 7742
5859 8257
5859 8272
5859 8634
5859 8956
5859 9024
5859 9256
5859 9472
5859 9974
5860 7555
5860 7941
5860 8019
5860 8088
5860 8990
5860 9370
5860 9650
5861 6773
5861 6827
5861 7095
5861 7193
5861 7822
5861 9118
5862 6341
5862 6405
5862 6906
5862 7021
5862 7110
5862 7375
5862 7554
5862 7575
5862 7635
5862 8366
5862 8373
5862 8820
5862 9111
5862 9235
5862 9640
5863 5932
5863 6189
5863 6699
5863 7382
5863 8013
5863 8072
5863 8625
5863 9501
5863 9826
5864 6032
5864 7183
5864 7578
5864 8364
5864 8621
5864 8849
5865 6252
5865 6678
5865 7648
5865 7954
5865 8531
5865 8943
5865 9482
5866 6153
5866 7644
5866 8714
5866 9859
5866 9861
5867 6157
5867 7222
5867 7378
5867 8024
5867 8434
5867 9092
5867 9300
5867 9729
5868 6987
5868 7838
5868 9069
5868 9378
5868 9482
5868 9995
5869 6419
5869 7030
5869 7206
5869 7891
5869 8205
5869 8781
5869 8796
5869 9037
5870 6275
5870 6349
5870 6595
5870 7315
5870 7417
5870 9158
5870 9525
5871 6287
5871 6549
5871 6945
5871 8729
5872 6490
5872 7166
5873 5880
5873 6400
5873 6659
5873 6954
5873 7066
5873 7129
5873 7771
5873 7851
5873 7922
5873 7937
5873 8057
5873 8094
5873 8284
5873 8333
5873 8600
5873 8832
5873 9153
5873 9402
5873 9663
5874 6020
5874 6959
5874 7076
5874 7766
5874 8245
5874 8742
5874 9605
5875 7265
5875 7592
5875 8016
5876 6492
5876 6970
5876 8950
5876 9160
5876 9669
5877 7271
5877 7551
5877 7642
5877 7867
5877 9307
5877 9875
5878 5910
5878 6047
5878 6726
5878 8459
5878 8672
5879 6099
5879 6191
5879 6649
5879 6904
5879 9218
5879 9265
5880 6009
5880 7279
5880 7784
5880 7814
5880 7887
5880 8774
5880 8791
5880 9493
5881 6026
5881 6096
5881 6464
5881 7449
5881 7694
5881 7967
5881 8095
5881 8433
5881 8446
5881 8653
5881 8709
5881 8723
5881 8943
5881 9001
5881 9440
5881 9673
5882 6321
5882 7488
5882 8118
5882 8656
5882 8970
5882 9665
5882 9787
5883 6545
5883 7219
5883 7931
5883 8047
5883 8148
5883 9879
5883 9882
5883 9940
5884 6097
5884 6267
5884 6503
5884 9658
5884 9826
5885 6432
5885 6911
5885 8160
5885 8454
5885 8798
5885 9782
5886 5913
5886 6745
5886 7108
5886 7828
5886 8086
5886 8584
5886 8682
5886 8924
5886 9068
5886 9574
5886 9664
5886 9719
5886 9796
5886 9972
5887 6686
5887 6831
5887 7053
5887 7238
5887 8289
5887 8561
5887 8738
5887 8955
5887 9345
5887 9417
5887 9563
5887 9571
5887 9644
5887 9689
5888 6065
5888 6207
5888 7107
5888 7302
5888 9495
5889 6123
5889 9174
5889 9728
5890 7401
5890 7455
5890 8686
5890 8987
5891 6405
5891 6786
5891 7294
5891 7346
5891 7378
5891 7825
5891 8068
5891 8533
5891 9330
5891 9814
5892 6225
5892 6352
5892 7342
5892 8415
5892 8437
5892 9899
5892 9906
5892 9997
5893 5973
5893 6231
5893 6438
5893 6477
5893 6583
5893 7262
5893 7903
5893 8961
5893 9522
5894 6262
5894 6855
5894 8180
5894 8559
5895 6074
5895 6234
5895 6911
5895 6961
5895 7057
5895 7606
5895 7823
5895 8151
5895 8417
5895 9225
5895 9951
5896 5905
5896 6158
5896 6433
5896 6750
5896 7175
5896 7591
5896 8328
5896 8464
5896 9269
5897 6462
5897 7915
5897 8071
5897 9620
5898 6067
5898 6178
5898 6864
5898 7458
5898 7510
5898 8273
5898 9235
5899 6726
5899 8681
5899 9008
5899 9024
5899 9360
5899 9663
5900 7442
5900 7645
5900 8092
5900 8417
5900 8939
5900 9552
5900 9743
5900 9880
5901 6058
5901 6190
5901 7495
5901 8542
5901 8799
5902 5937
5902 6139
5902 6283
5902 6575
5902 7711
5903 7212
5903 7595
5903 7977
5903 9167
5903 9629
5904 6395
5904 7179
5904 7707
5904 9444
5904 9503
5905 6259
5905 7307
5905 7591
5905 8100
5905 8983
5905 9071
5905 9638
5905 9974
5906 6280
5906 6438
5906 6916
5906 8633
5906 9857
5906 9887
5907 6145
5907 7055
5907 7166
5907 7242
5907 7273
5907 7289
5907 7680
5907 7759
5907 8337
5907 8952
5907 9078
5907 9117
5908 6476
5908 7376
5908 7401
5908 8236
5908 8278
5908 8496
5909 6293
5909 6609
5909 6917
5909 7086
5909 9410
5910 7681
5910 7741
5910 7977
5911 5940
5911 6500
5911 7752
5911 7952
5911 8231
5912 6500
5912 6556
5912 6857
5912 7073
5912 7308
5912 7800
5912 8231
5912 8445
5912 8793
5912 9717
5913 8487
5913 8682
5913 9008
5914 6874
5914 7769
5914 8580
5914 9193
5914 9204
5915 7270
5915 7541
5915 8167
5915 9384
5916 6421
5916 6850
5916 7261
5916 7774
5916 8461
5916 8634
5916 9117
5917 6781
5917 6989
5917 7021
5917 7575
5917 8791
5917 8815
5917 8862
5917 9668
5917 9839
5917 9929
5918 5934
5918 6129
5918 6221
5918 6627
5918 7304
5918 7366
5918 7422
5918 7461
5918 7549
5918 7636
5918 7673
5918 8004
5918 8170
5918 9132
5918 9161
5918 9327
5918 9565
5918 9592
5919 5945
5919 6021
5919 6101
5919 6208
5919 6292
5919 6351
5919 6591
5919 6987
5919 7093
5919 7172
5919 7417
5919 7516
5919 7935
5919 8153
5919 8368
5919 8678
5919 8696
5919 8763
5919 9000
5919 9022
5919 9196
5919 9386
5919 9640
5919 9663
5920 7855
5921 6373
5921 6457
5921 6486
5921 7270
5921 7515
5921 8372
5921 8936
5921 9096
5921 9840
5922 6009
5922 6869
5922 7012
5922 7110
5922 7460
5922 7490
5922 8732
5922 8787
5922 8994
5922 9336
5922 9537
5922 9848
5922 9866
5923 6033
5923 6466
5923 6581
5923 9013
5923 9206
5923 9801
5924 6373
5924 6880
5924 7650
5925 6216
5925 6301
5925 7610
5925 8497
5925 9778
5926 6448
5926 6832
5926 8370
5926 9152
5926 9698
5927 5944
5927 6193
5927 6377
5927 6410
5927 6453
5927 6633
5927 7057
5927 7092
5927 7348
5927 7422
5927 7538
5927 7541
5927 8220
5927 8609
5927 9147
5927 9721
5927 9857
5927 9928
5928 6255
5928 6496
5928 6894
5928 7114
5928 7145
5928 7393
5928 7679
5928 7825
5928 8244
5928 8726
5928 9649
5928 9728
5928 9978
5929 5930
5929 6476
5929 7291
5929 7468
5929 7884
5929 8647
5929 8874
5930 6716
5930 7291
5930 7468
5930 7810
5930 8329
5930 8428
5930 8955
5930 9131
5931 6900
5931 7411
5931 9043
5932 6450
5932 6480
5932 6874
5932 6906
5932 7610
5932 7766
5932 7926
5932 7939
5932 8050
5932 8067
5932 8497
5932 8773
5932 8776
5932 8809
5932 8958
5932 9241
5932 9446
5932 9468
5932 9763
5932 9955
5933 5937
5933 6228
5933 6249
5933 6594
5933 6862
5933 7136
5933 7356
5933 7425
5933 7918
5933 7944
5933 8706
5933 9004
5933 9181
5933 9815
5934 7549
5934 7673
5934 9295
5934 9745
5935 6037
5935 6065
5935 6130
5935 6239
5935 6461
5935 6862
5935 7932
5935 8284
5935 8295
5935 8450
5935 8828
5935 9182
5935 9544
5935 9630
5936 6526
5936 6696
5936 7873
5936 7914
5936 7969
5936 8014
5936 8099
5936 8665
5936 8712
5936 9336
5936 9692
5936 9835
5937 6325
5937 6661
5937 7249
5937 7479
5937 7548
5937 7763
5937 8715
5938 6160
5938 6259
5938 6281
5938 6300
5938 6618
5938 6812
5938 6888
5938 6984
5938 7572
5938 7573
5938 7777
5938 8230
5938 8409
5938 8624
5938 8787
5938 9721
5939 6013
5939 7382
5939 7834
5939 8075
5939 9448
5940 6210
5940 6864
5940 7529
5940 7850
5940 8883
5940 9186
5940 9681
5940 9960
5941 6469
5941 7650
5941 7695
5941 8467
5941 8949
5941 9460
5941 9721
5942 6076
5942 6813
5942 8901
5942 9850
5943 5984
5943 6854
5943 6964
5943 7399
5943 7976
5943 9048
5943 9078
5943 9325
5943 9419
5944 7000
5944 7523
5944 7770
5944 7856
5944 7960
5944 8179
5944 8210
5944 8954
5944 9611
5945 6528
5945 6628
5945 6945
5945 6956
5945 7151
5945 7193
5945 7277
5945 7542
5945 7949
5945 8521
5945 8628
5945 8819
5945 9113
5945 9203
5945 9307
5945 9371
5945 9645
5945 9648
5945 9733
5945 9977
5946 7112
5946 7643
5946 7830
5946 8473
5946 9781
5946 9822
5947 6617
5947 7193
5947 7312
5947 7475
5947 7894
5947 7911
5947 7976
5947 8049
5947 8164
5947 8518
5947 8520
5947 8562
5947 8674
5947 8696
5947 8716
5947 8762
5947 8831
5947 8851
5947 8922
5947 9186
5947 9277
5947 9294
5947 9299
5947 9471
5947 9609
5947 9813
5948 6155
5948 6454
5948 6505
5948 8566
5948 8674
5948 9120
5948 9396
5948 9689
5948 9846
5948 9903
5949 5951
5949 6732
5949 7783
5950 6098
5950 6216
5950 6618
5951 5974
5951 6326
5951 6344
5951 6390
5951 6566
5951 6822
5951 7278
5951 7733
5951 7783
5951 8035
5951 8107
5951 8175
5951 8205
5951 8378
5951 8939
5951 9273
5951 9630
5952 8034
5952 8778
5953 6544
5953 7184
5953 7877
5953 7985
5953 8381
5953 8926
5953 9292
5953 9630
5953 9741
5954 6745
5954 7694
5954 8230
5954 8428
5954 8580
5955 5977
5955 6396
5955 9086
5955 9829
5956 5964
5956 6099
5956 6730
5956 7102
5956 7110
5956 8580
5956 9945
5957 6612
5957 7752
5957 8026
5957 9851
5958 6524
5958 7860
5958 8940
5959 8126
5959 8958
5959 9100
5959 9346
5960 6472
5960 7590
5960 7984
5960 8157
5960 8180
5960 9631
5961 6022
5961 6261
5961 6833
5961 7536
5961 8339
5961 8353
5961 8901
5961 9309
5961 9550
5961 9620
5961 9704
5961 9906
5961 9981
5962 5992
5962 6165
5962 6790
5962 6803
5962 6985
5962 7374
5962 7418
5962 7664
5962 7721
5962 8371
5962 8446
5962 9455
5962 9462
5962 9963
5963 8310
5963 8457
5963 9522
5963 9902
5963 9908
5963 9964
5964 7382
5964 8176
5964 8892
5964 9280
5965 6740
5965 6745
5965 9874
5966 6649
5966 9551
5967 6000
5967 6132
5967 6442
5967 6914
5967 7229
5967 7566
5967 7949
5967 9398
5968 7513
5968 8303
5968 8574
5968 9521
5968 9944
5968 9977
5969 6055
5969 6139
5969 6489
5969 6540
5969 6651
5969 7162
5969 7208
5969 7608
5969 7903
5969 7969
5969 7993
5969 8255
5969 8510
5969 8680
5969 9082
5969 9092
5969 9216
5969 9646
5969 9870
5970 6077
5970 6516
5970 6708
5970 6980
5970 7157
5970 7249
5970 7426
5970 7834
5970 9398
5970 9801
5971 7322
5971 7624
5971 8049
5971 8421
5971 8625
5971 9938
5972 6569
5972 7154
5972 7232
5972 7996
5972 8078
5972 8458
5972 8928
5972 9041
5973 6126
5973 6361
5973 6399
5973 6430
5973 6617
5973 7121
5973 7192
5973 7313
5973 7416
5973 7607
5973 7957
5973 8150
5973 8179
5973 8599
5973 8874
5973 9077
5973 9139
5973 9489
5973 9897
5973 9953
5974 6488
5974 6984
5974 7205
5974 7476
5974 7568
5974 7662
5974 9599
5974 9990
5975 6955
5975 7042
5975 8362
5975 8539
5975 8808
5975 9688
5976 6725
5976 8095
5976 8133
5976 8957
5976 9002
5977 6108
5977 6637
5977 6854
5977 6947
5977 8711
5977 9277
5978 6159
5978 6727
5978 7347
5978 7477
5978 7493
5978 9995
5979 6047
5979 7409
5979 9303
5980 6079
5980 6148
5980 6593
5980 6653
5980 7176
5980 8828
5980 8960
5980 9395
5980 9414
5980 9628
5981 6092
5981 6173
5981 6246
5981 6478
5981 6670
5981 6697
5981 6872
5981 7217
5981 8610
5982 6312
5982 6629
5982 6725
5982 7217
5982 7236
5982 7541
5982 7672
5982 8230
5982 8405
5982 8915
5982 9044
5982 9097
5982 9555
5982 9698
5983 6001
5983 6397
5983 7183
5983 7468
5983 7556
5983 9967
5984 6195
5984 6397
5984 6515
5984 7250
5984 9238
5984 9846
5985 6953
5985 7098
5985 7598
5985 7886
5985 8132
5985 8473
5985 9059
5985 9636
5985 9817
5986 6127
5986 6651
5986 6732
5986 7068
5986 7654
5986 8384
5986 8729
5987 6053
5987 6113
5987 6201
5987 9938
5988 6067
5988 6160
5988 6673
5988 7375
5988 9573
5989 6719
5989 8223
5989 8642
5989 9188
5990 6012
5990 6162
5990 6635
5990 6902
5990 9022
5990 9173
5991 6438
5991 6452
5991 7052
5991 7163
5991 7540
5991 8029
5991 8103
5991 8905
5992 6202
5992 6518
5992 7303
5992 7977
5992 8429
5992 8558
5992 8681
5992 8934
5992 8978
5992 9146
5992 9540
5993 6546
5993 9218
5994 6490
5994 7086
5994 7510
5994 8518
5994 8788
5994 9289
5994 9320
5994 9341
5995 6614
5995 7822
5995 8144
5995 8848
5995 9559
5995 9607
5996 6203
5996 6279
5996 6516
5996 6723
5996 6737
5996 7297
5996 7417
5996 7510
5996 7707
5996 7714
5996 9159
5996 9414
5996 9620
5997 6149
5997 6535
5997 6793
5997 8072
5997 8861
5997 8990
5998 6150
5998 6645
5998 7616
5998 7882
5998 7995
5998 8057
5998 8236
5998 8292
5998 9547
5999 6537
5999 7533
5999 9499
5999 9695
5999 9985
6000 6465
6000 6597
6000 6821
6000 7809
6000 9278
6000 9320
6001 6004
6001 6327
6001 6345
6001 6674
6001 6719
6001 6774
6001 6993
6001 7326
6001 7397
6001 8016
6001 8280
6001 8711
6001 9598
6001 9807
6001 9931
6001 9992
6002 6437
6002 6571
6002 7383
6002 8600
6002 8630
6002 9140
6002 9499
6002 9667
6002 9863
6003 6406
6003 6658
6003 7922
6003 8736
6003 9166
6004 7021
6004 7766
6004 8169
6004 8711
6004 9111
6004 9406
6004 9583
6004 9936
6005 6402
6005 6848
6005 7254
6005 8067
6005 8967
6005 9039
6005 9144
6005 9331
6005 9363
6005 9483
6005 9820
6006 6429
6006 6492
6006 7259
6006 7619
6006 8418
6007 7400
6007 7534
6007 7672
6007 8406
6007 8827
6007 9756
6008 6356
6008 6881
6008 7330
6008 8355
6008 8500
6008 8943
6009 8157
6009 8748
6009 8926
6009 9485
6009 9728
6009 9899
6010 6972
6010 7592
6010 8827
6010 9847
6011 6718
6011 7266
6011 7796
6011 7831
6011 7949
6011 9221
6011 9289
6011 9339
6011 9991
6012 6163
6012 6841
6012 7004
6012 7218
6012 7870
6012 8130
6012 8203
6012 8264
6012 8415
6012 8534
6012 8835
6012 9467
6012 9997
6013 6210
6013 7103
6013 7200
6013 7512
6013 7891
6013 7939
6013 8913
6013 9086
6013 9685
6014 6050
6014 6373
6014 7540
6014 7803
6014 7918
6014 7950
6014 8021
6014 8959
6014 9645
6015 7895
6015 7930
6015 8144
6015 8687
6015 9007
6015 9398
6015 9706
6015 9736
6015 9746
6016 7040
6016 7045
6016 7296
6016 7459
6016 7530
6016 8811
6016 9798
6016 9963
6017 6607
6017 6937
6017 7501
6017 7721
6017 7742
6017 7941
6017 8432
6017 8864
6017 8933
6017 9744
6018 7200
6018 8656
6018 8911
6018 9231
6019 7002
6019 7585
6019 8034
6019 8085
6019 8236
6020 6247
6020 6276
6020 6639
6020 7371
6020 7484
6020 7798
6020 7934
6020 8563
6020 8597
6020 9209
6020 9467
6020 9521
6020 9575
6021 6208
6021 6221
6021 7297
6021 7969
6021 8001
6021 8678
6021 9000
6021 9022
6021 9380
6021 9899
6022 6099
6022 7283
6022 8996
6023 6049
6023 6253
6023 8817
6023 8886
6024 6593
6024 6993
6024 7995
6024 9720
6025 6617
6025 7688
6026 6034
6026 6302
6026 6430
6026 6556
6026 6875
6026 7341
6026 7843
6026 7969
6026 8040
6026 8076
6026 8095
6026 8233
6026 8494
6026 8941
6026 9310
6026 9440
6026 9453
6026 9673
6026 9715
6027 6157
6027 6202
6027 8551
6027 9729
6027 9804
6028 7032
6028 7677
6028 8312
6028 9939
6029 6157
6029 6649
6029 7696
6029 9232
6029 9548
6030 7343
6030 9096
6030 9689
6031 6375
6031 6907
6031 7269
6031 7300
6031 7494
6031 7802
6031 8064
6031 8476
6031 8509
6031 8552
6031 8708
6031 8916
6031 9060
6031 9205
6031 9495
6031 9747
6032 6152
6032 7118
6032 8732
6032 8905
6032 9581
6032 9791
6033 6148
6033 6671
6033 6693
6033 7043
6033 7495
6033 8463
6033 8495
6033 8540
6033 9276
6033 9801
6034 6139
6034 6819
6034 7161
6034 7711
6034 8236
6034 8976
6034 9452
6035 6236
6035 7356
6035 7560
6035 7761
6035 8513
6035 9185
6035 9502
6035 9563
6035 9612
6035 9817
6036 6386
6036 6593
6036 6656
6036 6899
6036 7671
6036 9097
6036 9500
6036 9859
6037 6794
6037 7079
6037 7401
6037 8372
6037 8419
6037 9100
6037 9128
6037 9303
6037 9391
6037 9820
6037 9982
6038 7156
6038 7612
6038 7623
6038 7806
6038 8516
6038 9697
6038 9839
6039 6120
6039 7052
6039 8137
6039 8355
6039 8950
6039 9337
6040 6280
6040 6987
6040 7066
6040 7374
6040 8435
6040 8512
6041 6916
6041 7328
6041 7700
6041 8279
6041 8580
6041 9093
6041 9126
6042 6466
6042 6719
6042 6879
6042 6914
6042 7020
6042 7053
6042 7601
6042 7784
6042 7935
6042 8207
6042 8407
6042 8472
6042 8526
6042 8913
6042 9085
6042 9723
6042 9787
6043 6180
6043 6285
6043 6685
6043 7243
6043 7440
6043 8491
6043 8809
6043 9193
6043 9834
6044 6767
6044 7728
6044 8328
6045 8194
6045 9295
6045 9649
6046 6781
6046 7500
6046 7858
6046 8377
6046 8823
6046 9175
6046 9373
6046 9560
6047 6523
6047 7399
6047 7559
6047 7589
6047 8215
6047 8316
6047 9347
6047 9467
6047 9468
6047 9530
6047 9668
6048 6077
6048 7397
6048 8527
6048 9357
6049 6253
6049 6479
6049 6532
6049 7311
6049 8530
6049 8892
6049 8978
6049 9116
6049 9194
6049 9792
6049 9828
6050 6439
6050 6657
6050 7540
6050 9645
6051 6129
6051 6433
6051 7114
6051 7817
6051 7961
6051 8228
6051 8450
6051 8470
6051 8660
6051 9444
6051 9863
6052 6381
6052 6682
6052 6963
6052 7426
6052 8240
6052 8649
6053 6144
6053 6214
6053 6877
6053 7178
6053 7931
6053 8652
6053 8778
6053 8803
6053 9173
6053 9177
6053 9646
6054 7288
6054 7297
6054 8534
6054 9357
6055 6126
6055 6225
6055 6602
6055 6740
6055 7386
6055 7734
6055 7869
6055 8076
6055 8777
6055 9000
6055 9593
6055 9958
6056 6062
6056 6796
6056 7368
6056 8361
6056 8852
6057 6719
6057 7770
6057 8607
6057 9185
6057 9536
6057 9853
6058 8834
6058 9911
6058 9948
6059 6106
6059 6510
6059 6877
6059 6883
6059 7325
6059 7397
6059 7409
6060 7816
6060 8404
6060 8435
6060 9616
6060 9970
6061 6094
6061 6556
6061 9667
6062 6135
6062 6773
6062 7397
6062 7900
6062 8233
6062 8884
6062 9037
6062 9849
6063 6615
6063 6718
6063 7248
6063 8635
6063 9295
6064 6128
6064 6891
6064 6909
6064 7428
6064 7775
6064 8779
6065 6155
6065 8320
6065 8834
6065 8877
6065 9127
6065 9130
6065 9383
6066 6103
6066 6697
6066 8526
6066 9281
6067 6422
6067 6464
6067 8382
6067 8639
6068 6814
6068 6949
6068 7136
6068 7714
6068 7882
6068 7946
6068 8443
6068 8824
6068 9219
6068 9678
6069 7445
6069 7687
6069 7865
6069 8190
6069 9074
6070 6271
6070 8098
6070 8983
6070 9017
6071 6882
6071 7924
6071 8181
6071 9194
6071 9606
6071 9692
6072 6695
6072 9276
6072 9622
6073 7608
6073 7685
6073 9681
6074 6354
6074 8179
6074 8675
6074 8925
6074 9899
6074 9908
6075 6465
6075 6609
6075 6653
6075 7118
6075 7560
6075 7654
6075 8333
6075 8635
6075 8889
6075 9736
6075 9778
6076 6877
6076 7101
6076 7698
6076 8361
6076 8589
6076 8666
6076 9319
6077 6080
6077 6187
6077 6309
6077 6316
6077 6996
6077 7248
6077 7834
6077 9246
6077 9718
6078 6630
6078 6638
6078 7553
6078 7984
6078 8115
6078 8695
6078 8897
6078 9011
6078 9098
6079 6273
6079 6541
6079 6560
6079 6672
6079 6858
6079 7320
6079 7780
6079 7803
6079 8074
6079 8241
6079 8444
6079 8594
6079 9316
6079 9691
6079 9741
6080 6689
6080 7094
6080 7330
6080 8049
6080 9037
6080 9443
6080 9508
6081 7147
6081 8246
6081 9389
6081 9663
6081 9692
6082 6825
6082 7583
6082 7634
6082 7755
6082 8509
6082 8572
6082 8627
6082 8681
6082 9071
6082 9890
6083 6536
6083 6848
6083 7030
6083 7070
6083 7133
6083 7812
6083 8157
6083 8435
6083 9247
6083 9728
6083 9913
6084 6138
6084 6198
6084 6815
6084 6854
6084 6987
6084 7093
6084 7598
6084 7976
6084 8001
6084 8160
6084 8818
6084 9203
6084 9318
6084 9344
6084 9671
6085 6096
6085 6173
6085 6302
6085 6735
6085 7052
6085 7216
6085 7380
6085 8043
6085 8190
6085 8521
6085 9286
6085 9398
6085 9489
6085 9920
6086 6162
6086 6403
6086 6927
6086 8138
6086 8599
6086 9155
6086 9937
6087 6754
6087 7332
6087 8570
6087 8739
6087 9360
6088 7406
6088 7536
6088 7666
6088 8560
6088 8902
6088 9216
6088 9374
6089 6140
6089 6208
6089 6326
6089 6686
6089 7841
6089 8007
6089 9232
6089 9587
6090 7028
6090 7442
6090 7646
6090 7732
6090 8302
6090 9079
6090 9378
6091 7449
6091 8660
6091 9123
6091 9245
6091 9861
6091 9876
6092 7276
6092 8288
6092 8988
6092 9087
6092 9308
6093 7143
6093 7337
6093 8223
6093 8884
6094 6196
6094 6666
6094 6997
6094 8247
6094 8976
6095 6291
6095 6355
6095 6780
6095 6810
6095 7346
6095 8079
6095 9214
6095 9717
6096 7335
6096 7570
6096 7578
6096 8132
6096 8941
6096 9401
6096 9615
6096 9730
6097 7141
6097 8650
6097 8778
6097 8826
6097 9259
6097 9621
6097 9861
6098 6101
6098 6195
6098 6370
6098 6596
6098 6752
6098 6785
6098 7138
6098 7279
6098 7328
6098 7450
6098 7616
6098 7720
6098 7885
6098 8255
6098 8449
6098 8834
6098 8847
6098 9543
6098 9557
6098 9641
6098 9785
6099 6191
6099 6923
6099 7976
6099 9142
6099 9218
6099 9921
6100 6283
6100 6311
6100 6870
6100 6918
6100 7978
6100 8080
6100 8082
6100 8116
6100 8395
6100 8594
6100 8612
6100 8873
6100 9316
6100 9420
6100 9449
6100 9524
6100 9784
6100 9930
6100 9955
6101 8535
6101 9059
6102 6405
6102 7848
6102 8647
6102 9274
6102 9649
6103 7208
6103 7270
6103 7352
6103 7872
6103 7903
6103 9277
6104 6486
6104 6580
6104 6755
6104 7406
6104 7825
6104 8104
6104 8130
6104 9427
6105 7109
6105 8814
6105 9447
6105 9766
6105 9788
6106 6405
6106 6510
6106 6604
6106 7325
6106 7406
6106 7409
6106 7455
6106 8811
6106 9479
6107 6942
6107 7255
6107 7515
6107 7593
6107 8035
6107 8453
6107 8577
6107 9908
6108 6282
6108 6813
6108 6947
6108 7036
6108 7047
6108 7217
6108 7329
6108 7502
6108 7653
6108 7664
6108 8230
6108 8343
6108 8553
6108 8711
6108 8765
6108 8776
6108 8810
6108 8990
6108 9050
6108 9182
6108 9277
6109 6135
6109 6196
6109 6481
6109 8759
6110 6486
6110 7224
6110 7771
6110 9559
6110 9968
6111 7696
6111 9036
6111 9424
6112 7035
6112 7424
6112 8055
6113 6829
6113 7073
6113 7166
6113 7981
6113 8441
6113 9111
6113 9628
6114 6208
6114 6542
6114 7126
6114 7192
6114 7204
6114 7676
6114 7906
6114 9269
6115 6182
6115 6202
6115 6478
6115 6637
6115 6878
6115 7132
6115 7463
6115 7847
6115 8331
6115 8450
6115 8476
6115 8598
6115 8654
6115 9082
6115 9349
6116 6221
6116 6925
6116 7822
6116 8595
6116 9552
6116 9665
6117 6766
6117 8519
6117 9561
6117 9757
6118 6323
6118 7120
6118 7366
6119 6759
6119 6835
6119 7444
6119 7485
6119 7757
6119 8034
6119 8625
6119 8931
6119 9074
6119 9728
6120 7490
6120 7926
6120 8548
6120 9716
6121 6258
6121 6820
6121 7610
6121 8236
6121 8628
6121 8707
6121 8737
6121 9571
6122 6149
6122 6781
6122 6984
6122 9017
6123 7154
6123 7721
6123 8739
6124 6245
6124 7982
6124 8071
6124 8572
6124 8933
6125 6309
6125 6773
6125 6949
6125 8442
6126 6745
6126 7142
6126 7734
6126 7869
6126 9149
6126 9446
6126 9593
6127 6825
6127 7422
6127 7927
6127 8225
6128 6183
6128 6249
6128 6251
6128 6390
6128 6580
6128 6641
6128 6804
6128 7092
6128 7386
6128 7619
6128 7642
6128 7644
6128 7739
6128 7882
6128 8299
6128 8326
6128 8767
6128 8909
6128 8928
6128 9018
6128 9139
6128 9480
6128 9772
6128 9805
6129 8615
6129 9579
6130 6157
6130 6266
6130 7604
6130 8003
6130 8327
6131 6433
6131 6594
6131 6716
6131 7721
6131 7820
6131 8274
6131 8513
6131 9071
6132 6235
6132 6624
6132 6894
6132 7229
6132 7926
6132 9169
6132 9398
6132 9783
6132 9837
6132 9956
6133 6192
6133 6259
6133 6418
6133 6554
6133 7210
6133 7554
6133 8209
6133 8718
6133 8836
6134 6842
6134 8715
6134 9728
6134 9854
6135 6196
6135 6805
6135 7390
6135 8076
6135 8480
6135 8567
6135 8609
6135 9491
6136 6951
6136 7180
6136 7694
6136 8402
6136 8617
6136 8898
6136 9859
6137 6342
6137 6535
6137 6908
6137 7217
6137 7871
6137 8861
6137 8933
6137 9150
6138 6602
6138 6732
6138 7157
6138 7589
6138 8085
6138 8452
6138 9360
6138 9648
6139 6324
6139 6427
6139 6672
6139 6686
6139 6856
6139 7462
6139 7577
6139 7711
6139 7882
6139 8376
6139 8475
6139 8568
6139 8636
6139 8955
6139 9265
6139 9667
6139 9692
6139 9733
6139 9830
6140 6274
6140 6793
6140 6910
6140 8981
6140 9232
6140 9587
6140 9630
6141 6778
6141 7706
6141 7882
6141 8207
6141 8417
6141 8639
6143 6393
6143 6528
6143 6968
6143 7412
6143 8440
6143 8656
6143 8707
6143 9267
6143 9790
6143 9861
6143 9931
6144 6431
6144 6533
6144 7178
6144 7981
6144 8213
6144 8764
6144 8803
6144 9173
6145 7353
6145 8031
6145 9111
6145 9241
6146 6840
6146 7618
6146 8606
6146 9301
6147 7473
6147 7902
6147 8047
6147 8200
6147 8281
6147 8513
6147 9598
6147 9951
6148 6483
6148 7600
6149 7076
6149 7287
6149 7326
6149 7431
6149 7769
6149 8235
6149 8493
6149 8597
6149 8808
6149 8875
6149 9380
6149 9475
6149 9532
6150 6742
6150 7040
6150 7184
6150 7546
6150 7616
6150 7882
6150 7995
6150 8016
6150 8103
6150 8115
6150 8250
6150 8327
6150 8589
6150 8628
6150 8763
6150 9893
6150 9997
6151 7745
6151 7923
6151 9354
6152 6160
6152 6800
6152 7178
6152 7492
6152 7588
6152 7823
6152 8108
6152 8139
6152 8614
6152 8661
6152 9158
6152 9209
6152 9539
6152 9549
6152 9555
6152 9637
6152 9861
6152 9998
6153 7031
6154 6643
6154 7598
6154 9371
6155 6183
6155 6205
6155 6349
6155 6755
6155 6974
6155 7307
6155 7559
6155 7817
6155 7867
6155 7913
6155 8112
6155 8428
6155 8787
6155 8857
6155 8884
6155 8923
6155 9089
6155 9354
6155 9751
6155 9838
6155 9993
6156 8169
6156 9739
6157 6465
6157 8382
6157 8834
6157 8892
6157 9300
6157 9663
6157 9729
6158 8330
6158 8656
6158 8806
6158 9295
6159 6754
6159 7219
6159 7329
6159 7699
6159 7843
6159 7999
6159 8484
6159 9559
6159 9649
6160 6377
6160 7582
6160 7823
6160 8682
6160 8708
6160 9444
6161 6353
6161 7482
6161 7696
6161 7744
6161 7797
6161 9244
6162 8044
6162 8068
6162 8647
6162 9155
6162 9861
6162 9878
6163 7300
6163 8553
6163 9013
6163 9796
6163 9985
6164 6710
6164 7518
6164 8539
6164 9257
6165 6456
6165 7593
6165 7830
6165 7955
6165 8102
6165 9167
6165 9694
6166 6414
6166 6628
6166 7200
6166 7833
6166 8933
6167 6381
6167 6597
6167 7170
6167 7629
6167 7715
6167 9120
6168 7414
6168 8192
6169 7037
6169 8419
6169 8722
6169 9123
6169 9809
6170 7566
6170 9378
6170 9693
6171 6466
6171 6578
6171 6680
6171 7017
6171 7501
6171 8112
6171 8117
6171 8814
6171 9442
6171 9820
6171 9898
6172 7817
6172 7826
6172 8935
6172 8947
6172 9005
6172 9151
6172 9613
6173 7188
6173 7556
6173 8347
6173 8431
6173 9737
6173 9992
6174 7160
6174 9391
6175 6671
6175 6911
6175 7037
6175 7853
6175 8106
6175 8192
6175 8418
6175 8454
6175 9320
6176 6421
6176 7118
6176 8521
6176 8882
6176 8921
6176 9117
6177 6401
6177 6462
6177 6486
6177 7498
6177 7794
6177 8157
6177 8565
6177 8681
6177 9013
6177 9048
6178 6864
6178 7191
6178 7458
6178 8273
6179 6390
6179 7684
6179 7913
6179 7914
6179 8413
6179 8426
6179 9433
6180 6342
6180 7899
6180 8621
6180 8826
6180 9963
6181 6316
6181 6373
6181 6442
6181 6536
6181 6977
6181 7347
6181 7540
6181 7661
6181 7728
6181 7773
6181 7897
6181 7963
6181 8198
6181 8762
6181 9509
6181 9827
6181 9875
6182 6387
6182 7479
6182 7662
6182 8025
6182 9426
6182 9689
6183 6513
6183 7338
6183 7747
6183 7931
6183 8177
6183 8306
6183 8561
6183 9002
6183 9065
6183 9447
6183 9492
6184 6201
6184 6455
6184 9778
6185 6236
6185 6557
6185 7190
6185 7942
6185 8229
6185 8472
6185 9873
6186 7369
6186 8103
6186 8417
6186 9578
6187 7434
6187 7652
6187 7834
6187 8115
6188 7009
6188 7550
6188 8126
6188 8146
6188 8323
6188 8502
6188 8751
6188 9272
6188 9755
6189 6238
6189 6260
6189 8072
6189 8236
6189 8625
6189 8730
6190 6493
6190 8244
6190 9467
6190 9593
6190 9877
6191 6513
6191 9142
6191 9218
6192 7138
6192 7950
6192 8104
6192 8209
6193 6393
6193 6653
6193 7791
6193 8273
6193 9262
6194 8748
6194 8836
6194 8897
6194 9211
6194 9566
6195 7171
6195 7965
6195 9455
6195 9632
6195 9635
6196 6898
6196 7390
6196 7461
6196 7519
6196 8643
6196 8730
6196 8786
6196 9154
6196 9435
6196 9485
6196 9491
6197 7789
6197 7935
6197 8355
6197 8419
6197 8453
6197 8642
6197 8742
6197 8784
6197 9107
6197 9167
6197 9575
6198 6312
6198 7297
6198 7481
6198 7694
6198 7791
6198 7957
6198 7958
6198 8838
6198 9249
6198 9357
6198 9421
6198 9790
6198 9987
6199 7735
6199 7750
6199 8800
6199 8832
6199 9426
6200 6483
6200 6919
6200 9663
6201 6455
6201 6637
6201 7121
6201 7646
6201 7650
6201 7735
6201 7826
6201 8179
6201 8475
6201 8508
6201 9314
6201 9519
6202 7449
6202 8137
6202 8598
6202 8648
6202 8845
6202 9082
6203 6233
6203 6355
6203 7914
6203 8001
6204 6509
6204 6845
6204 8044
6204 9372
6204 9925
6205 7615
6205 7922
6205 8293
6205 9033
6205 9509
6206 6243
6206 7075
6206 9061
6206 9546
6206 9722
6206 9895
6207 6470
6207 6611
6207 7697
6207 8358
6207 9325
6207 9502
6208 7625
6208 8128
6208 8464
6208 8678
6208 9000
6208 9022
6208 9168
6208 9409
6208 9488
6209 7134
6209 9493
6209 9680
6209 9839
6210 7176
6210 7420
6210 9186
6210 9667
6210 9674
6210 9960
6211 8806
6211 9592
6211 9623
6211 9884
6212 7690
6212 8300
6212 9058
6213 6420
6213 6508
6213 6726
6213 6974
6213 7059
6213 7090
6213 8197
6213 8743
6213 9524
6213 9663
6214 7062
6214 7420
6214 8620
6214 8724
6214 9524
6214 9698
6215 6342
6215 7640
6215 8024
6215 9052
6215 9078
6215 9963
6216 6333
6216 6338
6216 6402
6216 6846
6216 7508
6216 9338
6217 6382
6217 6572
6217 6658
6217 6925
6217 7180
6217 7218
6217 7484
6217 7939
6217 8372
6217 8468
6217 8825
6217 9579
6218 8634
6218 8953
6218 9064
6218 9105
6218 9281
6218 9925
6219 6283
6219 6317
6219 6720
6219 7945
6219 8188
6219 8399
6219 8715
6219 9185
6220 7401
6220 7479
6220 7505
6220 8571
6220 8687
6220 9450
6221 6507
6221 6740
6221 7184
6221 7763
6221 8549
6221 9324
6221 9593
6221 9625
6221 9665
6221 9874
6222 6302
6222 6870
6222 8089
6222 9218
6222 9923
6223 6632
6223 7330
6223 7549
6223 7929
6223 8669
6223 8891
6224 7068
6224 7619
6224 8075
6224 9778
6225 6591
6225 6657
6225 6946
6225 7238
6225 8023
6225 8442
6225 8492
6225 9309
6225 9435
6226 7021
6226 7866
6226 9136
6227 6725
6227 8340
6227 8496
6227 8957
6228 6249
6228 7186
6228 7195
6228 7425
6228 7703
6228 7946
6228 8687
6228 9004
6228 9329
6228 9556
6228 9645
6228 9826
6228 9842
6229 6741
6229 9025
6229 9152
6229 9449
6229 9555
6229 9873
6230 6851
6230 7034
6230 9137
6231 6617
6231 8299
6231 8339
6231 8921
6231 9014
6231 9612
6232 6234
6232 7126
6232 7136
6232 7558
6232 7576
6232 8010
6232 8412
6232 8610
6232 9273
6232 9616
6233 8798
6233 8807
6233 9702
6234 6600
6234 6641
6234 6741
6234 7119
6234 7283
6234 7307
6234 7627
6234 9265
6234 9364
6234 9571
6234 9820
6235 6317
6235 6658
6235 6827
6235 8940
6235 9266
6236 6269
6236 6582
6236 7128
6236 7190
6236 7362
6236 7406
6236 7784
6236 7995
6236 8125
6236 8282
6236 8419
6236 8742
6236 9487
6236 9614
6237 6499
6237 6514
6237 6572
6237 6635
6237 7079
6237 8670
6237 9405
6238 6490
6238 6693
6238 7180
6238 7357
6238 9388
6239 6544
6239 6631
6239 6819
6239 7266
6239 8133
6239 8140
6239 8417
6239 8419
6239 9267
6240 6622
6240 8034
6240 9684
6241 7015
6241 8073
6241 8075
6242 6445
6242 6882
6242 7103
6242 7467
6242 8598
6242 9058
6243 7401
6243 7536
6243 8570
6243 9445
6243 9546
6243 9895
6244 6306
6244 6573
6244 7097
6244 8287
6244 9266
6244 9582
6244 9997
6245 7401
6245 9602
6245 9862
6246 7127
6246 7204
6246 7466
6246 7823
6246 7877
6246 7923
6246 7977
6246 8230
6246 8357
6246 8654
6246 8756
6246 9114
6246 9262
6246 9399
6246 9482
6246 9512
6246 9828
6246 9887
6247 7656
6247 8447
6247 8465
6247 8545
6247 9311
6247 9381
6248 6414
6248 7075
6248 7808
6249 6504
6249 6716
6249 7995
6249 8361
6249 8490
6249 8961
6249 9816
6250 7163
6250 7798
6250 8057
6250 8296
6250 8330
6250 9221
6250 9353
6251 6363
6251 6436
6251 6558
6251 6616
6251 8032
6252 6410
6252 7014
6252 7369
6252 7463
6252 8034
6252 8852
6252 9290
6252 9422
6252 9810
6253 6837
6253 6874
6253 7033
6253 7407
6253 8108
6253 8115
6253 8208
6253 8283
6253 8530
6253 9017
6253 9114
6253 9180
6253 9287
6253 9828
6253 9943
6254 6354
6254 6999
6254 7883
6254 9604
6255 6714
6255 6820
6255 7028
6255 7415
6255 7660
6255 7704
6255 8244
6255 8289
6255 8392
6255 8514
6255 8726
6255 9839
6255 9978
6255 9998
6256 7692
6256 8118
6256 8970
6256 9600
6257 6569
6257 6820
6257 6872
6257 6922
6257 7390
6257 8398
6257 8625
6257 8663
6257 8693
6257 8904
6258 7721
6258 7806
6258 8664
6258 9088
6259 6882
6259 6926
6259 7108
6259 7720
6259 8086
6259 8110
6259 8217
6259 8246
6259 8315
6259 8546
6259 8558
6259 9264
6259 9272
6259 9809
6259 9875
6259 9910
6260 7035
6260 7404
6260 7410
6260 7588
6260 9477
6261 6814
6261 8527
6261 9556
6261 9615
6261 9906
6262 6855
6262 7495
6262 8097
6262 8431
6262 8559
6262 9710
6263 6441
6263 6704
6263 7768
6263 8118
6263 9024
6263 9416
6263 9487
6263 9697
6264 8380
6265 6449
6265 7082
6265 7919
6265 8143
6265 8300
6265 8405
6265 8736
6265 9993
6266 6638
6266 6948
6266 7636
6267 6820
6267 7232
6267 7517
6267 8267
6268 6290
6268 6302
6268 7457
6268 7894
6268 8034
6268 8115
6268 9035
6268 9050
6268 9154
6269 8161
6269 8996
6269 9320
6269 9360
6270 6362
6270 6513
6270 6741
6270 7061
6270 7762
6270 7987
6270 8157
6271 7411
6271 8098
6271 8108
6271 8539
6271 9017
6271 9458
6271 9833
6271 9875
6271 9965
6272 6404
6272 6436
6272 6745
6272 8122
6272 8209
6272 9631
6273 6560
6273 7240
6273 7465
6273 8241
6273 8412
6274 6777
6274 7692
6274 7924
6274 8359
6274 8472
6274 8557
6274 9205
6274 9333
6274 9770
6275 6349
6275 7789
6275 7972
6275 8016
6275 8198
6275 8350
6276 6408
6276 7042
6276 7156
6276 8267
6276 8362
6276 8750
6276 9181
6276 9273
6277 6540
6277 7184
6277 7487
6277 8138
6277 9424
6277 9885
6277 9894
6278 6290
6278 6970
6278 7582
6278 8075
6278 8464
6278 9443
6278 9465
6279 6421
6279 6723
6279 6811
6279 7009
6279 7297
6279 7552
6279 7707
6279 8958
6279 9159
6279 9640
6279 9859
6280 6567
6280 6571
6280 6722
6280 6852
6280 6868
6280 6953
6280 7067
6280 7430
6280 7667
6280 7866
6280 8247
6280 8707
6280 9113
6280 9143
6280 9227
6280 9420
6280 9502
6280 9655
6281 6312
6281 6696
6281 6812
6281 7777
6281 9366
6282 6653
6282 6947
6282 8634
6282 8711
6282 8765
6282 9277
6283 7491
6283 8305
6283 9492
6284 6771
6284 8171
6284 9013
6284 9473
6285 6339
6285 7017
6285 7092
6285 7117
6285 7241
6285 7666
6285 7741
6285 7818
6285 7894
6286 6373
6286 7641
6286 8496
6287 7198
6287 7287
6287 7775
6287 8804
6287 9467
6287 9496
6287 9987
6288 6733
6288 6967
6288 7473
6288 8483
6288 9256
6289 6815
6289 7008
6289 8190
6289 8544
6289 8865
6289 9544
6289 9776
6289 9878
6289 9899
6290 6641
6290 7942
6290 8115
6290 8441
6290 8979
6290 9378
6290 9487
6290 9568
6291 6585
6291 6626
6291 7260
6291 7449
6291 9116
6291 9217
6291 9885
6292 6795
6292 7074
6292 7688
6292 7914
6292 8588
6292 8608
6292 9242
6292 9383
6292 9499
6292 9715
6293 6429
6293 6490
6293 6917
6293 8855
6293 9330
6293 9667
6294 6302
6294 6653
6294 7065
6294 8115
6294 8184
6294 8288
6294 8794
6294 8881
6294 9916
6295 6399
6295 6429
6295 7206
6295 7429
6295 7643
6295 7814
6295 7946
6295 8140
6295 8648
6295 8904
6295 9494
6296 6985
6296 8194
6296 8208
6296 8422
6297 6548
6297 7136
6297 7441
6297 8024
6297 8750
6297 9197
6297 9247
6297 9618
6297 9662
6297 9707
6297 9723
6298 6537
6298 6990
6298 7120
6298 7533
6298 7724
6299 7168
6299 7172
6299 7543
6299 8273
6299 8459
6299 9149
6299 9575
6299 9708
6300 6812
6300 7314
6300 8176
6300 8996
6300 9995
6301 7717
6301 9036
6301 9652
6302 6823
6302 6845
6302 7382
6302 8115
6302 9041
6303 8178
6303 8551
6304 7320
6304 7752
6304 8169
6304 8506
6305 6645
6305 6770
6305 7339
6305 7551
6305 7819
6305 8142
6305 8439
6305 9244
6306 6316
6306 6577
6306 6715
6306 6793
6306 7246
6306 7700
6306 7746
6306 7908
6306 9054
6306 9096
6307 6729
6307 6758
6307 7139
6307 8412
6307 8820
6307 8931
6307 9835
6307 9978
6308 6314
6308 6399
6308 6400
6308 6469
6308 6598
6308 6632
6308 7394
6308 7543
6308 8302
6308 9447
6309 6371
6309 6529
6309 6539
6309 6709
6309 6858
6309 7379
6309 7559
6309 7857
6309 7868
6309 8018
6309 8880
6309 9257
6309 9290
6309 9337
6309 9471
6309 9572
6309 9688
6309 9849
6309 9891
6310 6404
6310 6634
6310 7914
6310 8148
6310 8434
6310 8470
6310 9372
6310 9553
6311 7978
6311 8026
6311 8116
6311 9449
6312 6632
6312 7023
6312 7331
6312 7361
6312 7529
6312 7602
6312 7786
6312 7886
6312 8022
6312 8174
6312 8288
6312 8769
6312 8901
6312 8919
6312 9424
6312 9482
6313 6330
6313 6531
6313 6536
6313 7045
6313 7703
6313 7895
6313 8281
6313 8731
6313 8745
6314 6741
6314 7455
6314 7482
6314 7849
6314 8047
6314 8593
6315 6542
6315 6672
6315 7114
6315 7264
6315 8822
6315 8873
6315 9053
6316 7728
6316 8198
6316 8881
6316 9509
6316 9831
6317 6485
6317 6490
6317 7589
6317 7775
6317 8663
6317 9445
6317 9702
6317 9839
6318 6430
6318 6542
6318 6784
6318 7108
6318 7367
6318 8569
6318 9017
6318 9374
6318 9538
6318 9569
6318 9891
6319 7471
6319 7618
6319 8084
6319 8837
6319 9247
6319 9607
6320 6444
6320 8791
6320 9457
6320 9526
6320 9551
6320 9757
6321 6514
6321 6976
6321 7790
6321 8907
6321 9482
6321 9655
6322 6641
6322 6747
6322 8251
6322 8445
6322 8480
6322 9160
6322 9330
6322 9595
6322 9616
6322 9973
6323 6580
6323 6649
6323 6762
6323 6937
6323 7120
6323 7820
6324 6610
6324 7069
6324 7123
6324 8034
6324 8108
6324 8134
6324 8408
6324 8465
6324 9375
6324 9379
6324 9974
6325 6336
6325 7031
6325 7154
6325 7548
6325 7560
6325 8005
6325 9899
6325 9933
6326 7072
6326 7530
6326 7642
6326 7721
6326 9065
6326 9105
6327 6597
6327 7535
6327 7670
6327 7835
6327 8607
6327 8667
6327 8891
6327 9202
6327 9243
6328 6559
6328 6796
6328 7061
6328 7329
6328 7440
6328 8076
6328 8839
6328 9313
6328 9604
6329 6614
6329 8144
6329 8777
6330 9104
6330 9796
6331 6624
6331 6665
6331 7405
6331 8798
6331 9157
6331 9166
6331 9389
6331 9621
6331 9704
6331 9996
6332 6782
6332 6898
6332 8124
6332 8403
6332 9472
6332 9581
6332 9636
6333 6644
6334 6951
6334 7259
6334 8591
6334 9432
6334 9693
6334 9777
6334 9978
6335 6641
6335 9178
6336 7548
6336 7913
6336 8438
6336 9179
6336 9234
6337 6618
6337 6960
6337 7236
6337 7875
6337 9574
6338 6414
6338 6846
6338 7024
6338 7203
6338 8395
6338 8539
6338 8928
6338 9338
6338 9485
6339 7154
6339 7241
6339 7297
6339 7639
6339 7666
6339 7894
6339 8442
6339 9174
6339 9472
6339 9479
6339 9620
6340 6474
6340 9739
6340 9741
6340 9829
6341 6432
6341 6707
6341 6886
6341 7108
6341 7571
6341 7859
6341 8379
6341 8771
6341 9630
6342 7120
6342 7242
6342 7840
6342 9052
6342 9678
6342 9963
6343 6804
6343 7833
6343 7956
6343 9037
6343 9681
6344 6872
6344 7048
6344 7623
6344 7676
6344 7802
6344 8047
6344 8202
6344 8665
6344 9792
6345 6932
6345 7108
6345 8532
6345 9146
6345 9992
6346 7591
6346 9946
6347 7272
6347 8954
6347 9563
6347 9818
6348 6464
6348 6816
6348 7276
6348 7450
6348 7619
6348 7698
6348 8273
6348 8367
6348 9371
6348 9957
6349 7262
6349 7954
6349 8044
6349 8208
6349 8230
6349 9522
6350 8393
6350 8800
6350 9262
6351 7589
6351 8065
6351 8133
6351 8150
6351 8264
6351 8314
6351 8577
6351 8841
6351 8857
6351 9513
6351 9918
6352 6412
6352 6571
6352 6588
6352 6847
6352 7165
6352 7473
6352 7505
6352 7681
6352 7743
6352 7843
6352 7927
6352 8049
6352 8453
6352 9037
6352 9747
6352 9899
6353 8771
6353 9501
6354 7554
6354 7696
6354 8188
6354 8196
6354 8235
6354 8418
6354 9625
6355 7381
6355 7662
6355 7955
6355 8152
6355 8426
6355 8857
6355 9058
6355 9464
6355 9915
6356 6881
6356 7102
6356 7526
6356 8069
6356 8227
6356 8818
6356 8943
6356 9027
6356 9038
6356 9400
6356 9890
6357 7035
6357 7064
6357 7310
6357 8327
6357 8461
6357 9419
6357 9539
6358 6409
6358 6477
6358 6635
6358 6887
6358 6944
6358 7004
6358 7111
6358 7130
6358 7363
6358 7590
6358 7594
6358 7878
6358 8487
6358 8761
6358 9065
6358 9192
6358 9533
6358 9674
6359 6823
6359 7196
6359 7275
6359 7452
6359 7563
6359 8287
6359 8404
6359 9000
6359 9188
6359 9218
6359 9325
6360 6612
6360 7613
6360 8567
6361 6436
6361 6959
6361 8217
6361 8967
6362 6801
6362 7410
6362 7627
6362 9711
6362 9755
6362 9783
6363 6531
6363 7166
6363 7465
6364 6693
6364 7116
6364 7171
6364 7666
6364 7766
6364 8218
6364 8404
6364 8541
6364 9024
6364 9043
6364 9654
6364 9726
6364 9835
6365 6534
6365 7027
6365 7382
6365 8428
6365 8479
6365 8580
6365 8663
6365 8819
6365 9796
6366 8923
6366 8948
6366 9181
6367 7119
6367 7510
6367 7653
6367 8101
6367 8692
6367 9084
6367 9825
6367 9952
6368 6482
6368 7398
6368 8128
6368 8348
6368 9197
6368 9487
6368 9997
6369 6450
6369 6592
6369 6681
6369 6700
6369 6807
6369 7004
6369 7053
6369 7793
6369 7845
6369 7998
6369 8232
6369 8260
6369 8411
6369 8727
6369 8979
6369 8990
6369 9479
6369 9670
6369 9767
6370 6596
6370 7163
6370 7763
6370 7984
6370 8421
6370 8720
6370 9641
6371 6539
6371 7107
6371 7242
6371 7857
6371 7868
6371 8343
6371 8932
6371 9904
6372 6594
6372 6606
6372 6856
6372 7382
6372 7436
6372 7609
6372 7627
6372 7724
6372 7799
6372 7972
6372 8019
6372 8651
6372 9304
6372 9326
6372 9445
6372 9549
6372 9772
6373 6765
6373 7063
6373 7240
6373 7347
6373 7650
6373 8028
6373 8145
6373 8192
6373 8230
6373 8780
6373 9150
6373 9364
6373 9605
6374 6717
6374 6893
6374 7289
6374 7482
6374 7792
6374 8455
6374 9383
6375 6824
6375 6983
6375 7911
6375 8018
6375 8034
6375 8275
6375 8337
6375 8606
6375 8607
6375 8720
6375 9019
6375 9169
6375 9257
6375 9271
6375 9375
6375 9422
6376 7083
6376 8451
6376 9015
6376 9956
6377 6578
6377 6832
6377 6939
6377 8842
6377 9172
6377 9563
6377 9917
6378 6697
6378 6949
6378 7731
6378 7824
6378 8815
6378 9281
6379 6450
6379 8907
6379 9208
6379 9609
6379 9669
6380 6677
6380 7686
6381 6597
6381 7170
6381 7485
6381 7791
6381 8941
6381 9747
6382 6422
6382 7084
6382 7796
6382 7823
6382 8235
6382 8664
6382 8882
6382 9579
6383 6690
6383 6813
6383 8723
6384 6908
6384 8564
6384 8603
6384 8688
6384 9049
6384 9579
6384 9736
6384 9997
6385 7737
6385 8019
6385 8868
6385 9622
6386 6656
6386 6791
6386 7671
6386 9121
6386 9368
6387 6388
6387 6631
6387 6695
6387 6732
6387 7114
6387 7155
6387 7157
6387 7604
6387 8350
6387 8608
6387 9160
6387 9186
6387 9191
6387 9238
6387 9396
6387 9880
6388 7157
6388 7604
6388 8406
6388 9396
6388 9946
6389 6962
6389 7044
6389 7114
6389 8901
6389 9367
6389 9848
6390 6601
6390 6827
6390 7210
6390 7246
6390 7568
6390 8966
6391 7328
6391 7746
6392 6793
6392 6827
6392 7193
6392 7677
6392 7817
6392 7822
6392 9118
6392 9786
6392 9861
6393 7461
6393 7581
6393 7948
6393 8243
6393 8375
6393 8432
6393 8485
6393 9164
6393 9248
6393 9423
6393 9662
6393 9771
6394 6457
6394 7025
6394 7085
6394 7538
6394 8465
6394 8674
6394 9257
6394 9675
6394 9722
6394 9939
6395 6432
6395 8740
6396 7133
6396 8598
6396 8757
6396 9070
6396 9235
6396 9247
6397 6460
6397 6684
6397 7103
6397 7172
6397 7745
6397 7958
6397 7962
6397 8088
6397 8899
6398 6400
6398 7320
6398 7609
6398 7892
6398 7968
6398 8057
6398 8291
6398 8574
6398 9267
6398 9618
6398 9621
6398 9818
6399 6781
6399 7922
6399 7957
6399 8047
6399 8150
6399 8170
6399 8302
6399 8457
6399 9145
6399 9489
6399 9897
6399 9980
6400 6466
6400 7002
6400 7965
6400 8715
6400 9623
6400 9967
6401 7385
6401 7919
6401 7963
6401 7983
6401 8289
6401 8625
6401 8892
6401 9141
6401 9365
6402 6644
6402 6673
6402 7220
6402 9144
6402 9555
6402 9939
6402 9979
6403 6617
6403 7308
6403 7688
6403 8124
6403 9182
6403 9187
6404 6638
6404 6674
6404 6732
6404 6737
6404 6902
6404 6998
6404 7056
6404 7410
6404 7808
6404 8196
6404 8201
6404 8758
6404 8869
6404 8910
6404 9201
6405 6610
6405 6963
6405 7106
6405 7613
6405 8034
6405 9374
6405 9564
6405 9649
6406 6543
6406 6622
6406 6897
6406 7515
6406 7559
6406 7690
6406 7922
6406 8010
6406 8669
6406 9166
6406 9321
6406 9757
6407 7969
6407 8569
6407 9063
6407 9234
6408 6534
6408 6704
6408 6805
6408 7076
6408 7126
6408 7767
6408 8044
6408 8265
6408 8419
6408 8438
6408 8468
6408 8553
6408 8555
6408 8699
6408 8875
6408 8972
6408 8994
6408 9208
6409 6677
6409 7805
6409 8229
6409 8421
6409 8556
6409 9179
6409 9210
6409 9289
6410 8857
6410 9023
6410 9044
6410 9171
6410 9185
6410 9735
6410 9750
6411 6830
6412 6701
6412 7240
6412 7980
6412 9189
6412 9212
6412 9761
6413 6569
6413 7999
6413 9648
6414 6711
6414 6713
6414 6903
6414 6989
6414 7027
6414 7746
6414 8226
6414 8429
6414 8649
6414 8987
6414 8990
6414 9466
6415 7178
6415 7598
6415 7739
6415 8515
6415 8991
6415 9404
6416 6555
6416 6886
6416 6891
6416 7105
6416 7233
6416 8087
6416 8258
6416 8439
6416 8911
6416 9070
6416 9874
6417 6739
6417 7556
6417 8637
6417 9358
6417 9713
6418 6428
6418 6544
6418 6611
6418 6785
6418 6933
6418 7045
6418 7162
6418 7621
6418 8035
6418 8094
6418 8153
6418 8205
6418 8712
6418 9200
6418 9539
6419 6487
6419 6542
6419 6979
6419 7051
6419 7288
6419 7553
6419 7644
6419 7659
6419 7891
6419 8205
6419 8541
6419 8796
6419 8935
6419 9062
6419 9410
6419 9857
6420 6741
6420 7834
6420 9455
6421 6424
6421 6814
6421 7013
6421 7616
6421 7738
6421 7824
6421 7885
6421 8413
6421 8546
6421 8694
6421 9806
6422 8359
6422 9849
6423 6559
6423 6912
6423 6916
6423 7023
6423 7106
6423 7219
6423 7558
6423 7714
6423 7838
6423 7884
6423 7959
6423 7971
6423 9074
6423 9153
6423 9650
6423 9722
6424 8455
6424 8639
6424 9132
6425 6874
6425 7880
6425 8903
6425 9928
6426 6988
6426 7604
6426 7864
6426 8259
6426 8331
6426 8468
6426 8673
6426 8780
6426 9441
6426 9461
6426 9551
6426 9732
6427 9205
6427 9625
6428 6460
6428 9741
6429 6793
6429 7369
6429 7417
6429 8018
6429 8064
6429 8389
6429 8653
6429 9239
6429 9509
6429 9824
6430 6674
6430 6870
6430 7211
6430 8070
6430 8098
6430 8740
6430 8746
6430 8820
6430 9031
6430 9550
6430 9708
6430 9833
6431 6637
6431 9601
6431 9772
6431 9886
6432 6640
6432 6886
6432 8390
6432 9026
6432 9168
6432 9949
6433 6737
6433 7941
6433 8674
6433 8839
6433 9052
6433 9327
6434 8342
6434 8435
6434 9133
6434 9837
6434 9870
6435 6470
6435 8126
6435 8145
6435 8268
6435 9203
6435 9672
6436 7005
6436 7208
6436 7267
6436 7322
6436 7471
6436 7477
6436 7622
6436 8201
6436 8591
6436 8643
6436 8942
6436 8967
6436 9616
6437 6452
6437 6942
6437 7303
6437 7908
6437 8429
6437 9733
6437 9792
6437 9844
6438 6738
6438 6773
6438 7069
6438 7101
6438 7522
6438 7600
6438 7744
6438 8462
6438 8976
6438 9202
6438 9381
6438 9836
6438 9887
6439 7071
6439 9013
6439 9038
6439 9163
6440 6782
6440 7053
6440 7575
6440 8305
6440 8653
6440 9506
6441 7101
6441 7383
6441 7613
6441 7694
6441 7768
6441 7847
6441 7918
6441 8008
6441 8929
6441 8991
6441 9416
6441 9487
6441 9660
6441 9697
6441 9949
6442 6626
6442 7773
6442 8539
6442 9256
6442 9509
6443 6949
6443 7104
6443 7577
6443 7882
6443 8213
6443 8330
6443 8402
6443 8432
6443 8913
6443 9013
6443 9157
6443 9179
6443 9495
6443 9689
6444 7711
6444 8019
6444 8166
6444 8806
6444 8882
6444 9018
6444 9526
6444 9698
6444 9904
6445 7485
6445 8904
6445 9298
6445 9331
6446 7096
6446 7101
6446 8165
6446 8714
6446 8764
6446 8795
6446 9183
6446 9652
6447 6613
6447 6834
6447 6968
6447 8573
6447 9975
6448 7420
6448 7462
6448 9339
6448 9718
6448 9969
6449 7102
6449 7122
6449 7206
6449 7919
6449 8143
6449 8300
6449 8736
6449 8759
6449 8979
6449 9993
6450 6859
6450 8519
6450 9240
6450 9310
6450 9552
6450 9622
6450 9630
6450 9692
6450 9792
6450 9937
6451 7265
6451 9105
6451 9161
6451 9336
6451 9354
6452 6551
6452 7710
6452 8964
6452 9038
6452 9132
6453 6626
6453 7422
6453 8195
6454 6485
6454 6647
6454 6846
6454 8327
6454 9625
6455 9322
6455 9333
6455 9822
6456 7699
6456 8839
6456 9694
6457 6788
6457 6907
6457 7087
6457 7353
6457 7381
6457 7752
6457 8000
6457 8100
6457 8747
6457 9965
6457 9968
6458 6732
6458 6800
6458 7338
6458 7589
6458 8085
6458 8624
6458 8839
6458 9360
6458 9404
6458 9476
6459 8288
6459 8580
6459 9008
6459 9252
6459 9804
6460 8111
6460 8859
6460 9028
6460 9198
6461 6978
6461 9160
6462 6490
6462 7077
6462 8861
6463 9630
6463 9968
6464 7105
6464 7330
6464 7647
6464 8005
6464 8288
6464 8890
6465 8280
6465 8641
6465 8893
6465 8981
6465 9356
6465 9362
6465 9938
6466 6911
6466 7002
6466 7407
6466 7965
6466 8374
6466 8715
6466 8953
6466 9592
6466 9623
6466 9720
6467 6496
6467 6520
6467 6702
6467 6925
6467 6933
6467 7469
6467 7508
6467 8341
6467 8740
6467 9099
6467 9325
6467 9623
6467 9628
6467 9681
6468 7091
6468 7110
6468 7157
6468 7168
6468 7301
6468 7347
6468 7474
6468 7839
6468 7957
6468 8239
6469 6658
6469 7486
6469 7904
6469 8441
6469 8949
6469 9506
6469 9728
6469 9820
6470 7277
6470 8733
6470 8800
6470 9721
6470 9876
6471 7081
6471 7261
6471 7727
6471 9105
6471 9354
6472 6793
6472 6936
6472 7093
6472 8157
6472 8413
6472 8944
6472 8960
6472 9501
6473 6621
6473 6734
6473 7665
6473 7767
6473 7898
6473 8031
6473 8047
6473 8073
6473 8484
6473 8908
6473 9074
6473 9860
6474 7416
6474 7866
6474 8410
6474 8850
6474 9339
6474 9750
6475 6553
6475 6626
6475 6635
6475 6875
6475 6923
6475 7717
6475 8180
6475 8395
6475 8488
6475 9191
6475 9672
6476 7178
6476 7417
6476 7661
6476 9516
6476 9837
6477 6583
6477 6612
6477 6674
6477 7031
6477 7055
6477 7122
6477 7132
6477 7396
6477 7532
6477 7903
6477 8861
6477 8964
6477 9444
6478 6542
6478 7773
6478 8455
6478 9793
6478 9877
6479 6728
6479 7006
6479 7341
6479 7752
6479 9367
6479 9650
6480 6981
6480 9856
6481 6649
6481 6768
6481 7381
6481 7622
6481 7778
6481 8018
6481 8414
6481 8455
6481 8920
6481 9058
6481 9073
6482 6516
6482 6629
6482 7037
6482 7358
6482 7395
6482 7721
6482 7775
6482 8320
6482 8332
6482 8648
6482 8853
6482 9081
6482 9388
6482 9919
6483 7105
6483 7646
6483 7826
6483 8386
6483 8810
6483 8903
6483 9027
6483 9185
6484 7223
6484 8804
6484 9037
6485 6760
6485 6763
6485 7003
6485 7165
6485 7335
6485 8129
6485 8148
6485 8288
6485 8532
6485 8753
6485 9402
6485 9586
6485 9714
6485 9792
6486 6580
6486 6644
6486 6690
6486 6707
6486 7017
6486 7178
6486 7264
6486 7459
6486 7470
6486 7825
6486 8054
6486 8091
6486 8104
6486 8253
6486 9219
6486 9427
6486 9651
6487 7039
6487 7505
6487 7515
6487 8418
6488 6607
6488 6608
6488 7166
6488 7205
6488 7208
6488 7476
6488 7564
6488 7741
6488 8058
6488 8382
6488 9549
6488 9990
6489 6542
6489 6632
6489 6692
6489 6697
6489 7048
6489 7213
6489 7222
6489 8790
6489 8835
6489 9131
6489 9697
6490 6575
6490 6814
6490 6851
6490 7499
6490 7728
6490 7788
6490 8185
6490 9388
6490 9437
6490 9828
6491 6598
6491 6773
6491 7319
6491 7794
6491 8704
6491 8778
6491 9493
6492 6655
6492 6843
6492 7259
6492 7664
6492 8548
6492 9988
6493 6730
6493 6837
6493 7001
6493 8155
6493 9212
6493 9392
6493 9949
6494 6545
6494 7337
6494 7363
6494 8347
6494 8423
6494 9325
6495 6988
6495 7623
6495 8143
6495 8184
6495 8195
6495 8982
6495 9128
6496 6793
6496 7552
6496 8368
6496 8581
6496 8889
6496 9681
6497 6609
6497 7468
6497 7704
6497 8542
6497 9594
6497 9719
6498 7241
6498 7661
6498 7778
6498 8037
6498 8237
6498 9213
6498 9253
6498 9961
6498 9977
6499 6706
6499 6813
6499 6986
6499 7148
6499 7395
6499 7480
6499 7488
6499 7782
6499 7809
6499 8125
6499 8192
6499 8466
6499 8623
6499 8715
6499 9985
6500 6877
6500 7634
6500 8231
6500 8455
6500 9560
6501 7130
6501 7182
6501 7362
6501 7632
6501 7849
6501 8201
6501 8580
6501 9420
6501 9789
6502 6926
6502 9008
6502 9222
6503 6816
6503 6885
6503 6888
6503 7142
6503 7200
6503 7262
6503 7308
6503 8233
6503 8671
6503 8976
6503 9330
6503 9965
6504 6873
6504 8292
6504 9815
6505 8566
6505 8930
6505 9120
6506 6552
6506 6867
6506 7194
6506 7667
6506 7927
6506 8038
6506 8859
6507 8346
6507 8376
6507 8407
6507 8991
6507 9330
6507 9418
6507 9457
6508 7090
6508 8197
6508 8535
6508 9834
6509 6743
6509 7142
6509 7204
6509 7481
6509 8004
6509 8125
6509 8274
6509 8296
6509 8310
6509 8424
6509 8782
6509 9191
6509 9351
6509 9504
6509 9989
6510 7409
6510 7663
6510 8347
6510 8955
6510 9403
6510 9489
6510 9581
6510 9629
6510 9805
6511 7063
6511 7847
6511 8884
6511 9856
6512 6729
6512 6741
6512 7638
6512 8936
6512 9496
6513 6675
6513 6704
6513 6738
6514 6590
6514 7053
6514 7076
6514 7097
6514 7156
6514 7405
6514 7537
6514 8194
6514 8346
6514 8656
6514 8768
6514 9586
6514 9839
6515 8073
6516 6702
6516 7310
6516 7442
6516 7558
6516 7565
6516 7992
6516 8107
6516 8119
6516 8392
6516 8420
6516 8760
6516 8852
6516 9180
6516 9525
6516 9812
6517 6612
6517 8108
6517 8375
6517 8907
6517 9165
6517 9210
6518 7303
6518 7977
6518 9008
6518 9055
6518 9540
6518 9836
6518 9883
6519 7378
6519 7467
6519 7944
6519 8426
6519 8627
6519 9523
6519 9737
6520 6783
6520 8442
6520 9345
6520 9839
6521 7259
6521 7287
6521 7319
6521 7395
6521 7769
6521 9269
6521 9927
6522 6750
6522 6959
6522 7052
6522 7925
6522 8655
6523 8579
6523 9668
6524 7139
6524 7617
6524 8273
6524 8375
6524 8476
6524 8705
6524 9078
6524 9187
6524 9680
6525 6544
6525 6560
6525 7182
6525 7345
6525 7715
6525 8229
6525 8237
6525 8504
6525 8630
6525 9148
6525 9610
6525 9922
6526 7914
6526 7969
6526 8043
6527 6544
6527 6617
6527 7184
6527 7209
6527 7300
6527 7837
6527 7928
6527 8381
6527 8648
6527 9108
6527 9215
6527 9250
6528 7716
6528 8313
6528 8333
6528 9272
6528 9459
6528 9959
6529 8527
6529 8549
6529 9537
6529 9607
6530 6831
6530 8459
6530 9843
6531 7954
6532 6792
6532 6860
6532 7553
6532 8087
6532 9035
6532 9316
6533 6893
6533 8503
6533 8894
6533 9360
6534 8390
6534 8852
6534 9243
6534 9628
6535 7617
6535 8416
6535 8649
6535 8861
6535 9443
6536 7006
6536 7537
6536 7701
6536 8243
6536 8565
6536 8981
6536 9367
6536 9571
6536 9739
6536 9961
6537 6600
6537 7533
6537 7686
6537 9162
6537 9695
6538 7052
6538 8206
6538 9423
6538 9424
6538 9664
6539 7242
6539 8230
6539 8435
6539 8746
6539 9572
6540 7002
6540 7812
6540 7947
6540 9894
6541 7772
6541 7858
6541 8564
6541 8858
6541 9356
6542 6668
6542 7099
6542 7106
6542 7126
6542 7478
6542 7906
6542 8325
6542 8748
6542 9010
6542 9269
6542 9320
6542 9861
6543 6777
6543 6899
6543 6909
6543 7196
6543 7982
6543 8081
6543 8113
6543 8256
6543 8486
6543 8773
6543 8819
6543 8886
6543 8963
6543 9236
6543 9322
6543 9329
6543 9505
6543 9681
6543 9755
6544 6578
6544 7128
6544 7183
6544 7184
6544 7209
6544 7526
6544 7877
6544 7918
6544 8381
6544 8958
6544 9517
6544 9687
6544 9921
6545 7220
6545 7793
6545 8427
6545 9030
6545 9281
6545 9425
6545 9549
6545 9661
6545 9940
6546 6667
6546 7505
6546 7576
6546 7941
6546 8019
6546 8337
6546 8661
6546 9331
6546 9370
6547 6614
6547 6967
6547 7608
6547 7685
6547 8110
6547 8239
6547 8392
6547 8432
6547 8768
6547 8818
6548 8119
6548 9609
6548 9649
6548 9764
6549 7072
6549 7442
6550 6739
6550 8023
6551 7730
6551 8000
6551 8677
6551 8750
6551 8964
6551 9132
6551 9499
6551 9756
6552 7266
6552 7313
6552 7653
6552 8944
6552 9750
6553 7827
6553 7963
6553 8026
6553 8762
6554 7275
6554 7363
6554 7602
6554 7625
6554 8114
6554 8523
6554 8594
6554 9019
6554 9221
6554 9476
6554 9530
6555 6723
6555 6757
6555 8351
6555 8994
6555 9449
6556 6754
6556 6967
6556 7061
6556 7751
6557 6994
6557 7161
6557 7254
6557 8921
6557 9968
6558 6690
6558 6842
6558 6977
6558 7465
6558 8876
6559 6810
6559 6977
6559 7414
6559 7444
6559 7676
6559 7927
6559 8615
6559 8942
6559 9006
6559 9149
6559 9615
6560 7403
6560 7442
6560 7595
6560 7701
6560 7872
6560 8342
6560 8680
6560 8698
6560 8720
6560 9506
6560 9871
6561 7295
6561 8556
6561 8938
6562 7715
6562 8271
6562 8891
6562 8928
6563 6774
6563 8464
6563 8874
6563 9305
6563 9337
6563 9899
6564 7699
6564 7849
6564 8847
6564 9357
6564 9595
6564 9621
6565 8931
6566 6612
6566 9076
6567 7778
6567 8080
6567 8786
6567 8977
6567 9479
6568 7085
6568 7305
6568 7398
6568 7568
6568 7574
6568 8005
6568 8487
6568 9149
6568 9245
6568 9957
6569 7063
6569 7109
6569 7537
6569 8417
6569 8458
6569 8988
6569 9041
6569 9101
6569 9480
6570 6594
6570 7493
6570 7498
6570 7762
6570 7840
6570 8108
6570 9222
6571 6693
6571 7745
6571 7973
6571 8209
6571 8787
6571 8838
6571 8984
6571 9142
6571 9332
6571 9466
6571 9843
6571 9854
6571 9955
6572 6608
6572 9347
6573 6895
6573 7035
6573 7097
6573 7944
6573 7954
6573 8012
6573 8103
6573 8287
6573 8300
6573 8457
6573 8784
6573 9284
6573 9462
6573 9596
6573 9936
6574 7817
6574 8272
6574 8509
6574 8786
6574 9032
6574 9231
6574 9594
6574 9647
6575 6670
6575 7223
6575 8803
6575 9122
6575 9662
6575 9664
6575 9862
6575 9919
6576 6594
6576 7050
6576 7286
6577 7052
6577 7279
6577 7678
6577 7887
6577 8496
6577 8716
6578 6762
6578 7181
6578 7230
6578 7267
6578 8096
6578 8165
6578 8951
6578 9259
6578 9301
6578 9627
6579 7744
6579 7963
6579 8876
6579 8956
6580 6606
6580 6644
6580 6808
6580 7522
6580 7825
6580 8104
6580 9132
6580 9381
6580 9427
6580 9472
6580 9499
6580 9884
6580 9967
6581 6921
6581 6962
6581 7007
6581 7241
6581 7377
6581 7462
6581 7742
6581 7964
6581 8137
6581 8225
6581 8622
6581 8994
6581 9058
6582 7112
6582 7275
6582 8138
6582 8739
6582 9632
6583 6671
6583 6674
6583 7132
6583 7903
6583 8033
6583 8351
6583 8520
6583 9019
6583 9157
6583 9406
6583 9883
6584 6806
6584 6813
6584 7073
6584 7428
6584 8281
6584 9213
6584 9236
6584 9650
6584 9755
6584 9788
6585 7094
6585 8069
6585 8170
6585 8364
6585 9580
6586 6645
6586 6804
6586 6861
6586 7224
6586 8051
6586 8688
6587 8218
6587 8986
6587 9215
6587 9561
6588 6885
6588 7681
6588 8165
6588 8434
6588 8484
6588 9037
6588 9218
6588 9899
6589 8588
6589 8911
6589 8973
6589 9106
6589 9522
6589 9946
6590 7667
6590 7938
6590 8194
6590 8656
6591 6665
6591 6919
6591 7458
6591 8265
6591 9124
6591 9489
6591 9838
6591 9991
6592 6958
6592 7392
6592 7760
6592 9670
6592 9767
6593 6792
6593 6940
6593 7361
6593 8120
6593 8450
6593 8934
6593 8994
6593 9060
6593 9093
6593 9619
6594 6737
6594 7100
6594 7259
6594 7382
6594 7627
6594 7673
6594 7765
6594 7952
6594 8423
6594 8635
6594 8882
6594 9304
6594 9396
6594 9417
6594 9521
6595 7519
6595 8418
6595 8474
6595 8677
6595 9408
6596 7143
6596 9641
6597 6665
6597 6828
6597 7629
6597 8005
6597 8214
6597 8799
6598 6786
6598 8143
6598 8625
6598 8670
6598 9434
6599 6632
6599 7156
6599 7220
6599 8188
6599 8462
6599 9287
6600 6627
6600 7363
6600 9532
6600 9775
6600 9968
6601 6697
6601 6897
6601 7204
6601 7280
6601 7568
6601 7602
6601 7655
6601 7864
6601 8175
6601 8312
6601 8846
6601 8966
6601 9763
6602 6635
6602 6780
6602 6888
6602 8907
6602 8945
6602 9160
6603 7582
6603 7723
6603 7757
6603 8253
6603 8412
6603 9022
6603 9091
6604 6898
6604 7045
6604 7242
6604 7282
6604 7333
6604 8084
6604 8085
6604 8148
6604 8223
6604 8415
6604 8459
6604 9746
6605 7439
6605 8133
6605 8624
6605 9493
6606 7092
6607 6724
6607 6982
6607 7492
6607 9246
6607 9559
6607 9640
6608 6612
6608 7762
6609 6715
6609 6757
6609 6788
6609 6855
6609 7255
6609 8094
6609 8597
6609 9221
6609 9323
6609 9542
6609 9714
6609 9881
6610 8465
6610 9098
6611 6883
6611 7223
6611 7358
6611 9325
6612 6709
6612 6963
6612 6984
6612 7226
6612 7410
6612 7485
6612 7741
6612 7794
6612 7864
6612 8310
6612 8450
6612 8793
6612 8817
6612 9092
6612 9301
6612 9371
6612 9376
6612 9754
6612 9824
6612 9875
6613 6718
6613 7024
6613 7654
6613 9219
6613 9338
6613 9393
6613 9921
6614 7692
6614 8050
6614 8144
6614 8269
6614 8622
6614 8892
6614 9667
6615 9295
6615 9511
6616 8230
6616 9058
6617 7024
6617 7688
6617 7926
6617 8124
6617 9094
6617 9480
6617 9904
6617 9914
6618 7066
6618 7600
6618 8229
6618 8550
6618 8868
6618 9657
6618 9885
6619 6963
6619 6986
6619 7030
6619 7207
6619 7454
6619 8327
6619 8985
6619 9550
6620 6834
6620 6968
6620 7915
6620 9485
6621 7318
6621 7568
6621 8386
6621 8490
6621 8669
6621 8674
6622 6880
6622 6928
6622 7406
6622 7448
6622 7691
6622 8230
6622 8453
6623 7032
6623 7330
6623 8736
6623 9210
6623 9969
6624 7405
6624 8798
6625 6682
6625 6686
6625 6951
6625 6976
6625 7311
6625 7345
6625 7843
6625 8346
6625 8443
6625 8774
6625 9110
6625 9700
6625 9785
6625 9932
6625 9961
6625 9990
6626 6640
6626 7183
6626 7449
6626 7751
6626 7836
6626 8690
6626 9078
6626 9571
6626 9604
6627 6801
6627 7236
6627 7791
6627 8121
6627 8560
6628 6846
6628 7516
6628 7954
6628 8898
6628 8919
6628 9649
6629 6715
6629 6980
6629 7541
6629 7721
6629 7965
6629 8358
6629 8405
6629 8915
6629 9598
6629 9888
6629 9997
6630 7201
6630 7395
6630 7627
6630 9011
6630 9604
6631 7157
6631 7604
6631 8240
6631 9396
6632 6687
6632 6885
6632 6955
6632 7596
6632 8031
6632 8169
6632 8211
6632 8565
6632 8925
6632 9661
6633 6771
6633 6916
6633 6953
6633 8388
6633 9970
6634 8470
6634 8947
6634 9774
6635 6738
6635 6893
6635 6965
6635 7006
6635 7499
6635 7644
6635 7766
6635 7820
6635 8060
6635 8141
6635 8276
6635 8455
6635 8718
6635 8926
6635 9210
6636 8181
6636 8625
6636 8772
6636 9209
6636 9220
6636 9957
6637 6995
6637 7282
6637 7700
6637 7990
6637 8255
6637 8598
6637 8654
6637 8671
6637 8675
6637 9082
6638 7355
6638 7505
6638 7984
6638 8123
6638 8554
6638 9011
6639 7415
6639 7699
6639 7895
6639 8222
6639 8249
6639 8455
6639 8532
6639 9974
6640 7420
6640 7983
6640 8015
6640 8289
6640 8388
6640 8935
6640 9684
6641 6946
6641 7232
6641 7271
6641 7473
6641 8238
6641 8389
6641 8653
6641 8766
6641 8823
6641 9151
6641 9248
6641 9759
6641 9773
6641 9783
6642 7436
6642 8257
6642 9126
6642 9834
6643 7694
6643 7867
6643 8289
6643 8455
6643 9164
6643 9244
6643 9371
6643 9849
6644 6893
6644 7538
6644 7679
6644 8104
6644 8213
6644 8797
6644 9282
6644 9427
6645 6861
6645 7771
6645 8455
6645 8792
6646 8613
6646 8990
6646 9918
6647 7460
6647 7507
6647 8046
6647 8686
6647 8935
6647 9916
6648 7220
6648 7442
6648 7575
6648 7690
6648 9307
6648 9751
6649 6783
6649 7294
6649 7617
6649 7643
6649 8043
6649 8116
6649 8144
6649 8246
6649 8332
6649 8789
6649 8836
6649 9153
6649 9428
6649 9551
6649 9972
6650 6758
6650 7167
6650 7757
6650 8615
6650 9339
6650 9594
6650 9768
6650 9906
6650 9948
6651 7307
6651 7801
6651 8001
6651 8989
6652 6719
6652 6991
6652 8601
6652 8981
6652 9152
6652 9677
6653 6736
6653 7082
6653 7170
6653 7252
6653 7588
6653 7787
6653 7843
6653 8307
6653 8979
6653 9102
6653 9204
6653 9250
6654 7273
6654 7520
6654 7543
6654 7955
6654 8182
6654 8765
6654 8963
6654 9031
6654 9092
6654 9399
6654 9674
6654 9751
6655 6880
6655 7119
6655 7318
6655 7365
6655 9125
6655 9273
6655 9623
6655 9902
6656 6899
6656 6932
6656 7671
6656 7782
6656 8264
6656 9679
6656 9718
6656 9874
6657 7037
6657 7361
6657 7595
6657 7723
6657 8372
6658 7583
6658 7829
6658 8433
6658 8677
6658 9289
6658 9595
6658 9637
6659 6915
6659 6954
6659 7285
6660 6747
6660 8741
6660 9262
6660 9523
6661 6981
6661 8456
6662 7401
6662 7706
6662 7795
6662 7855
6662 7866
6662 8670
6662 8709
6662 8741
6662 9558
6663 6668
6663 7383
6663 7890
6663 8630
6663 8720
6664 6783
6664 8310
6664 9334
6664 9363
6664 9650
6665 6810
6665 6978
6665 6990
6665 7019
6665 7065
6665 7604
6665 8536
6665 8866
6665 9163
6666 7696
6666 7774
6666 8650
6666 8770
6666 9554
6667 7941
6667 8019
6667 8185
6667 9196
6667 9370
6667 9514
6668 6740
6668 6860
6668 7280
6668 8151
6668 8984
6668 9394
6668 9507
6669 6860
6669 7118
6669 7349
6669 7824
6669 8740
6669 8923
6669 9117
6669 9856
6670 7183
6670 7255
6670 7416
6670 8026
6670 8092
6670 8467
6670 8610
6670 8755
6670 8806
6670 9656
6670 9835
6671 7695
6671 7910
6671 8119
6671 8427
6671 8818
6671 9791
6672 6925
6672 7304
6672 9053
6673 6688
6673 6690
6673 7252
6673 7389
6673 8102
6673 8446
6673 8725
6673 8794
6673 9027
6673 9032
6673 9629
6673 9719
6673 9877
6674 7132
6674 7691
6674 8976
6674 9416
6675 6929
6675 9081
6676 6996
6676 7663
6676 8381
6676 8633
6677 6842
6677 6923
6677 7212
6677 7686
6677 7843
6677 9255
6677 9257
6677 9424
6677 9808
6677 9869
6678 7057
6678 7176
6678 7305
6678 7379
6678 8808
6678 9127
6678 9321
6678 9328
6678 9580
6679 8988
6680 7017
6680 9820
6681 7349
6681 8472
6681 8571
6681 9330
6681 9830
6682 6963
6682 7426
6682 7461
6682 7743
6682 8581
6682 8649
6682 9794
6683 7604
6683 9109
6683 9307
6684 7661
6684 7994
6684 8102
6685 7732
6685 7745
6685 9544
6685 9633
6686 6821
6686 7604
6686 7711
6686 8060
6686 8400
6686 8456
6687 7217
6687 9364
6688 7732
6688 7986
6688 9618
6689 7023
6689 7827
6689 8048
6689 8432
6689 8484
6689 8962
6689 9393
6689 9443
6689 9499
6689 9612
6690 6895
6690 7427
6690 8324
6690 8723
6690 9114
6690 9435
6690 9541
6690 9545
6690 9861
6691 6700
6691 7009
6691 7837
6691 7915
6691 9719
6691 9766
6692 7085
6692 7293
6692 8096
6692 8274
6692 9437
6693 7407
6693 7737
6693 8126
6693 8669
6693 8860
6693 9466
6693 9808
6694 7129
6694 7341
6694 7610
6694 9119
6694 9159
6694 9824
6694 9909
6695 6745
6695 7913
6695 9864
6696 7361
6696 9834
6697 7018
6697 7279
6697 7501
6697 7731
6697 7957
6697 8704
6697 8853
6697 9132
6697 9281
6697 9835
6698 7090
6698 7116
6698 7915
6698 8001
6698 8150
6698 8507
6698 8613
6698 8892
6698 9256
6698 9293
6699 6972
6699 7368
6699 7549
6699 9185
6699 9552
6699 9560
6700 7021
6700 7100
6700 7837
6700 8247
6700 8517
6700 9251
6700 9766
6701 6737
6701 7240
6701 7463
6701 8649
6701 9939
6702 7558
6702 8760
6702 9398
6702 9494
6703 7145
6703 8720
6703 8926
6703 9576
6704 7336
6704 7485
6704 8042
6704 9674
6705 6864
6705 7565
6705 8281
6705 8819
6706 7636
6706 8071
6706 8080
6706 8609
6707 7953
6707 8321
6707 8637
6707 8840
6707 9052
6707 9887
6708 8342
6708 9077
6708 9098
6708 9555
6708 9783
6709 7410
6709 7610
6709 7741
6709 8225
6709 8450
6709 9811
6709 9824
6710 7023
6711 6800
6711 7528
6711 8057
6711 9042
6711 9259
6711 9442
6711 9776
6712 7068
6712 7582
6712 7657
6712 7703
6712 8009
6712 8024
6712 8503
6712 8853
6712 9504
6712 9857
6713 7081
6713 7424
6713 7496
6713 7694
6713 9938
6714 7334
6714 7586
6714 7808
6714 8782
6714 9838
6715 7081
6716 7291
6716 7468
6716 8082
6716 8852
6717 7102
6717 7255
6717 7696
6717 7710
6717 8729
6717 8754
6717 8936
6717 9669
6718 7799
6718 9348
6718 9567
6719 6975
6719 7334
6719 7420
6719 7770
6719 7932
6719 7990
6719 8186
6719 8244
6719 8423
6719 8830
6719 9023
6719 9774
6719 9899
6720 7162
6720 7234
6720 7975
6720 9859
6721 9251
6721 9606
6722 7355
6722 7794
6722 8449
6722 9227
6723 6782
6723 7297
6723 7707
6723 8166
6723 9612
6724 6963
6724 7426
6724 7695
6724 8649
6724 8881
6724 9241
6724 9794
6725 7370
6725 8957
6726 6821
6726 7034
6726 8024
6726 8505
6726 9072
6726 9652
6727 7374
6727 7673
6727 7969
6727 8374
6727 9031
6727 9048
6727 9621
6727 9732
6727 9883
6728 7006
6728 7758
6728 7914
6728 8315
6728 9111
6728 9385
6729 7104
6729 8412
6729 8931
6730 7968
6730 8365
6730 8594
6730 8891
6730 9210
6730 9613
6731 7118
6731 7942
6731 8870
6732 7589
6732 7730
6732 7997
6732 8085
6732 8355
6732 8639
6732 8650
6732 8748
6732 9130
6732 9360
6732 9384
6732 9550
6733 6787
6733 9256
6734 7032
6734 7063
6734 7574
6734 8322
6734 8433
6734 8478
6734 8996
6734 9051
6734 9579
6735 7261
6735 7989
6735 8302
6736 7205
6736 7410
6736 7642
6736 9204
6736 9790
6737 7240
6737 7831
6737 9334
6738 7509
6738 7522
6738 9836
6739 6891
6739 7055
6739 7406
6739 8109
6739 8774
6739 8810
6739 9713
6740 6914
6740 6937
6740 7584
6740 8151
6740 9394
6740 9507
6740 9594
6740 9625
6741 6754
6741 6998
6741 7009
6741 7119
6741 7257
6741 7307
6741 7592
6741 7627
6741 8091
6741 8388
6741 8851
6741 8872
6741 9265
6741 9571
6741 9768
6741 9892
6742 7323
6742 8310
6742 9059
6742 9823
6743 7165
6743 8363
6743 8639
6743 9906
6744 6834
6744 7068
6744 8467
6744 8641
6744 8645
6744 8962
6744 9644
6745 6838
6745 6900
6745 7520
6745 7801
6745 8453
6745 8788
6745 9100
6745 9864
6746 7553
6746 8033
6746 8228
6746 8989
6747 7981
6747 8084
6747 8670
6747 8718
6747 9030
6747 9262
6748 6761
6748 6802
6748 7166
6748 7505
6748 7680
6748 9243
6749 8936
6749 9012
6749 9783
6749 9813
6749 9892
6749 9991
6750 7734
6751 6756
6751 7194
6751 7553
6751 7597
6751 8838
6751 9333
6752 8261
6752 8996
6752 9064
6752 9443
6752 9601
6753 8008
6753 9070
6753 9883
6753 9943
6754 7308
6754 9218
6754 9482
6755 6825
6755 6921
6755 7327
6755 7413
6755 7542
6755 7915
6755 7958
6755 8067
6755 8197
6755 8219
6755 8275
6755 8740
6755 8753
6755 8760
6755 8867
6755 9838
6756 6887
6756 7194
6756 7553
6756 7597
6756 7707
6756 7723
6756 8031
6756 8085
6756 8167
6756 8754
6756 9218
6756 9319
6756 9783
6756 9971
6757 7559
6757 7808
6757 8688
6758 7263
6758 8053
6758 8441
6758 8578
6759 7168
6759 7416
6759 7640
6759 7977
6759 8224
6759 8305
6759 8670
6759 8741
6759 9549
6759 9750
6760 8360
6760 9325
6761 6908
6761 7408
6761 7505
6761 7872
6761 8025
6761 8302
6761 8431
6761 8681
6761 8755
6761 9768
6762 6817
6762 7598
6762 8087
6762 8388
6762 9116
6762 9259
6762 9415
6762 9914
6762 9966
6763 7229
6763 8715
6763 8753
6763 9499
6763 9586
6764 7021
6764 7369
6764 7561
6764 8935
6764 9362
6764 9400
6765 8328
6765 9360
6766 7124
6766 7386
6766 9126
6767 7053
6767 8615
6767 9306
6767 9879
6768 6860
6768 6959
6768 7742
6768 8392
6768 8458
6768 9026
6768 9387
6768 9899
6769 7486
6769 7536
6769 8534
6769 8573
6769 8574
6769 9322
6769 9665
6769 9985
6770 7339
6770 8816
6770 8832
6770 9214
6770 9244
6770 9569
6770 9610
6771 6888
6771 6932
6771 7127
6771 7285
6771 7862
6771 7900
6771 8127
6771 8158
6771 8260
6771 8511
6771 8542
6771 8987
6771 9923
6772 7407
6772 9841
6773 7073
6773 8095
6773 8247
6773 8641
6773 8891
6773 9548
6773 9591
6773 9889
6774 8464
6774 8543
6774 8819
6774 9523
6774 9874
6775 6873
6775 7402
6775 7661
6775 8169
6775 8767
6775 9231
6776 7029
6776 7069
6776 7070
6776 7537
6776 8326
6776 9255
6777 6784
6777 7053
6777 7776
6777 8108
6777 8280
6777 8338
6777 8579
6777 8652
6777 8907
6777 9382
6777 9763
6778 7704
6778 8800
6778 9440
6778 9583
6778 9630
6778 9923
6779 7463
6779 7730
6779 8652
6779 9005
6779 9262
6780 7346
6780 8079
6780 8549
6781 6984
6781 7275
6781 7676
6781 7892
6781 7992
6781 8660
6781 8740
6781 9175
6781 9597
6782 7019
6782 7401
6782 7454
6782 7483
6782 7612
6782 7710
6782 7861
6782 8185
6782 8402
6782 8552
6782 8746
6782 8928
6782 9106
6782 9190
6782 9891
6782 9953
6783 7091
6783 7562
6783 8677
6783 9110
6783 9223
6783 9333
6783 9334
6783 9397
6784 6831
6784 6931
6784 7183
6784 7185
6784 7255
6784 9377
6784 9905
6785 8901
6785 8941
6785 9200
6785 9790
6785 9826
6786 7208
6786 7662
6786 7833
6786 7963
6786 8212
6786 8670
6786 8727
6786 8936
6786 9689
6786 9821
6787 8719
6787 9256
6787 9409
6788 7801
6788 8355
6788 8818
6788 9482
6789 7285
6789 7333
6789 7362
6789 9042
6789 9327
6789 9971
6790 7128
6790 7199
6790 8046
6790 8127
6790 8130
6790 8473
6790 9406
6791 7331
6791 7797
6791 9778
6792 6975
6792 7150
6792 7438
6792 7777
6792 8181
6792 9062
6792 9769
6793 6810
6793 6937
6793 7759
6793 7885
6793 8156
6793 8157
6794 7513
6794 7819
6794 8307
6794 8901
6795 6877
6795 7448
6795 7462
6795 8062
6795 8392
6795 8646
6795 9670
6795 9969
6796 8076
6797 7406
6797 8990
6797 9090
6797 9180
6798 6938
6798 8073
6798 9256
6799 8050
6799 8310
6799 8956
6799 9089
6799 9278
6799 9435
6799 9444
6800 6989
6800 7820
6800 7890
6800 8159
6800 8474
6800 8518
6800 8701
6800 9181
6800 9593
6800 9727
6800 9800
6800 9996
6801 7178
6801 9081
6801 9343
6801 9648
6802 6970
6802 7584
6802 8274
6802 8344
6802 9092
6803 7285
6803 7721
6803 7736
6803 7980
6803 8739
6804 7833
6804 7865
6804 8145
6804 8383
6804 8399
6804 8544
6804 8688
6804 8764
6804 8933
6804 9096
6804 9123
6804 9161
6804 9332
6804 9422
6804 9615
6804 9712
6804 9833
6805 8265
6805 8875
6805 9602
6806 7229
6806 7297
6806 7428
6806 8392
6806 8798
6806 9236
6806 9406
6806 9755
6806 9788
6807 7178
6807 7307
6807 7631
6807 8108
6807 9132
6807 9736
6808 7474
6808 7838
6808 8262
6808 8447
6808 9325
6809 7406
6809 7985
6809 8529
6810 7818
6810 8866
6811 8468
6811 8510
6812 8624
6813 7299
6813 7320
6813 7774
6813 8272
6813 8415
6813 9069
6813 9075
6813 9245
6813 9444
6814 7478
6814 7714
6814 7946
6814 7969
6814 8492
6814 9546
6814 9678
6815 7732
6815 7755
6815 8663
6815 9344
6815 9450
6816 6889
6816 7048
6816 7117
6816 7400
6816 7451
6816 7902
6816 8342
6816 8465
6816 8646
6816 9973
6817 6837
6817 9187
6817 9825
6817 9995
6818 7808
6818 8448
6818 8790
6818 8894
6819 7027
6819 9238
6819 9994
6820 7708
6820 9208
6820 9522
6821 7371
6821 7425
6821 7761
6821 7806
6821 7894
6821 8251
6821 8654
6821 8732
6821 8874
6821 9278
6821 9361
6821 9476
6821 9978
6822 7753
6822 8378
6822 8418
6822 8510
6822 8622
6822 9127
6822 9821
6822 9890
6823 6854
6823 7105
6823 7733
6823 9080
6823 9313
6824 7911
6824 9019
6824 9304
6824 9419
6824 9784
6825 7489
6825 7981
6825 8252
6825 8777
6825 9165
6825 9490
6826 6855
6826 7033
6826 8559
6827 6971
6827 7095
6827 7193
6827 7448
6827 7822
6827 8032
6827 8703
6827 9118
6827 9517
6827 9730
6828 7066
6828 7255
6828 8093
6828 8104
6828 9315
6828 9932
6829 6845
6829 6919
6829 8044
6829 8644
6829 9253
6830 7180
6830 7328
6830 7359
6830 7762
6830 8515
6830 8735
6830 8905
6830 8967
6831 7048
6831 7742
6831 7961
6831 9024
6831 9472
6831 9534
6832 7118
6832 7379
6832 9096
6832 9107
6832 9476
6833 8127
6833 8820
6834 7005
6834 8573
6834 8885
6834 9288
6834 9606
6834 9853
6835 6995
6835 7502
6835 7908
6835 8762
6836 8790
6836 9642
6837 6916
6837 7372
6837 7653
6837 7798
6837 7990
6837 8441
6837 8667
6837 9062
6837 9665
6837 9785
6838 8015
6838 8090
6838 8873
6839 7329
6839 8321
6839 8686
6839 8702
6839 9055
6839 9447
6840 8187
6840 8485
6840 9415
6841 6846
6841 7130
6841 7457
6841 7760
6841 8643
6841 8989
6841 9821
6842 7618
6842 7780
6842 9141
6842 9310
6842 9389
6842 9457
6843 7328
6843 8288
6843 9034
6843 9297
6844 7216
6844 7316
6844 9793
6845 7110
6845 7227
6845 7229
6845 7863
6845 8044
6845 8644
6845 8806
6845 8923
6845 9076
6845 9372
6845 9709
6846 7255
6846 7508
6846 8426
6846 8558
6846 9338
6847 7291
6847 7636
6847 7681
6847 8842
6847 9033
6847 9037
6847 9899
6848 7848
6848 7988
6848 8310
6848 8375
6848 8395
6848 9102
6848 9589
6849 6965
6849 7552
6849 8249
6849 8646
6849 8665
6849 8830
6849 8982
6849 9263
6850 7982
6850 8113
6850 8351
6850 8422
6850 8963
6851 6985
6851 7115
6851 7291
6851 9437
6852 7762
6852 8072
6852 8247
6852 8264
6852 8726
6852 9569
6853 7211
6853 7529
6853 8308
6853 8945
6854 7087
6854 7957
6854 8031
6854 8126
6854 8167
6854 8329
6854 8799
6854 9538
6855 8103
6855 9262
6855 9281
6856 8024
6856 8142
6856 8212
6856 8503
6856 8687
6856 9060
6857 6971
6857 7047
6857 7183
6857 7513
6857 7515
6857 7807
6857 8024
6857 8056
6857 8608
6857 8981
6857 9204
6857 9216
6857 9631
6857 9661
6858 7439
6858 7481
6858 8698
6858 9086
6859 7107
6859 8073
6859 9240
6859 9803
6860 7082
6860 7501
6860 8125
6860 8392
6861 7057
6861 7224
6861 8428
6861 8859
6861 9434
6862 7100
6862 7932
6862 9182
6863 6941
6863 7386
6863 7765
6863 7939
6863 9357
6864 6956
6864 7160
6864 7330
6864 7458
6864 7510
6864 7710
6864 7782
6864 7928
6864 8273
6864 8470
6864 8723
6864 8953
6864 9237
6864 9633
6864 9667
6864 9698
6864 9773
6864 9880
6865 6878
6866 8337
6866 8961
6866 9001
6866 9908
6867 6925
6867 7438
6867 7482
6867 8477
6867 8486
6867 8539
6867 8915
6867 9312
6867 9425
6868 6885
6868 7560
6868 9177
6868 9321
6868 9565
6869 8994
6869 9537
6869 9756
6870 7786
6870 9550
6870 9624
6871 7363
6871 7423
6871 7495
6871 8071
6871 8521
6871 8617
6871 8637
6871 8802
6871 9159
6871 9742
6871 9807
6872 7210
6872 7856
6872 8011
6872 8202
6872 8354
6872 8456
6872 8665
6872 8683
6872 8934
6872 9260
6872 9498
6872 9710
6872 9862
6872 9884
6873 6910
6873 7202
6873 7436
6873 7506
6873 7646
6873 7841
6873 8013
6873 8441
6873 9126
6873 9834
6873 9907
6874 7880
6874 8903
6874 9702
6875 7453
6875 7961
6875 9429
6875 9542
6876 7025
6876 7609
6876 7625
6876 7824
6876 9508
6876 9779
6876 9905
6877 7546
6877 7989
6877 9361
6877 9738
6877 9911
6877 9912
6878 6886
6878 7825
6878 7892
6878 8539
6878 8605
6878 9500
6878 9591
6878 9619
6878 9760
6879 8069
6879 8195
6879 8293
6879 8346
6879 8386
6879 8486
6879 8882
6879 9825
6880 7467
6880 8539
6880 9125
6881 7533
6881 8069
6881 8943
6881 9822
6882 7220
6882 7234
6882 7574
6882 7610
6882 8210
6882 8375
6882 8835
6882 9070
6882 9194
6882 9328
6882 9831
6882 9914
6883 8874
6884 7733
6884 7835
6884 8472
6884 8634
6884 9080
6884 9134
6884 9180
6884 9351
6885 7560
6885 7905
6885 8995
6885 9167
6885 9177
6885 9848
6886 8083
6887 7553
6887 7597
6888 7607
6888 7862
6888 8158
6888 8627
6888 9473
6888 9548
6889 7400
6890 7662
6890 7998
6890 8396
6890 9636
6891 6973
6891 7228
6891 8244
6891 8750
6891 8820
6891 9455
6892 7325
6892 9070
6893 7547
6893 7792
6893 8027
6893 8995
6893 9569
6894 7229
6894 7990
6894 8432
6894 8583
6894 9351
6894 9398
6894 9886
6895 7461
6895 7914
6895 9467
6895 9611
6896 7021
6896 7053
6896 7068
6896 7147
6896 7954
6896 8246
6896 9663
6897 7685
6897 9272
6897 9408
6898 7109
6898 7314
6898 7870
6898 7977
6898 8765
6898 8886
6898 8985
6898 9437
6899 6932
6899 7331
6899 7551
6899 8553
6899 8688
6899 8732
6899 8948
6900 7411
6900 8247
6900 8274
6900 9043
6901 8195
6901 8609
6902 7672
6902 7984
6902 8827
6902 9702
6902 9813
6903 8330
6903 8516
6904 6956
6904 9142
6904 9218
6904 9317
6905 7356
6905 7361
6905 8261
6905 8306
6905 8480
6905 9177
6905 9336
6905 9595
6905 9616
6905 9843
6905 9973
6906 7085
6906 7110
6906 7284
6906 7375
6906 7383
6906 8169
6906 9111
6906 9640
6907 7036
6907 7623
6907 7848
6907 7912
6907 9008
6907 9103
6907 9162
6907 9386
6907 9456
6908 8699
6908 8782
6909 7105
6909 7267
6909 7432
6909 7617
6909 8024
6909 8116
6909 8476
6909 8807
6909 9116
6909 9485
6910 7436
6910 7506
6910 7540
6910 7917
6910 8047
6910 8472
6910 9126
6910 9834
6911 6934
6911 7357
6911 8454
6911 8646
6912 7525
6912 7540
6912 7607
6912 9114
6913 7178
6913 9123
6913 9230
6913 9239
6913 9511
6913 9531
6913 9670
6914 7020
6914 7442
6914 7935
6914 8526
6914 8913
6914 9521
6914 9723
6915 7057
6915 7402
6915 7846
6915 8385
6915 8840
6915 9012
6915 9661
6916 7001
6916 7445
6916 7507
6916 8700
6916 9288
6916 9307
6916 9937
6917 7723
6917 8559
6917 9113
6917 9740
6918 7145
6918 7187
6918 8720
6918 9513
6919 7071
6919 7264
6919 8694
6919 9124
6919 9221
6919 9452
6919 9463
6919 9521
6919 9838
6920 7313
6920 8650
6920 9065
6921 6962
6921 7168
6921 7787
6921 7964
6921 8207
6921 8225
6921 8564
6921 9058
6922 6925
6922 7850
6922 8904
6923 8180
6923 8395
6923 8563
6923 8602
6923 9027
6923 9672
6923 9962
6923 9980
6924 6953
6924 7505
6924 9066
6924 9186
6924 9961
6925 7282
6925 7438
6925 8115
6925 8414
6925 8477
6925 8539
6925 8562
6925 8836
6925 8961
6925 9892
6925 9910
6926 7553
6926 8279
6926 8364
6926 8453
6926 9345
6927 8347
6927 8465
6928 7245
6928 7362
6928 7403
6928 7448
6928 7691
6928 8453
6928 8609
6928 9545
6928 9734
6928 9960
6929 7868
6929 8837
6929 9485
6929 9659
6929 9815
6930 7009
6930 7765
6930 8026
6930 8270
6930 8309
6930 8366
6931 9097
6931 9489
6932 8044
6932 8047
6932 9509
6933 7512
6933 7546
6933 7650
6933 7890
6933 9022
6933 9681
6934 7285
6934 8085
6934 8454
6934 9017
6934 9186
6934 9208
6934 9782
6934 9839
6935 7801
6935 7886
6935 8388
6935 8991
6935 9009
6935 9017
6935 9408
6936 6996
6936 7306
6936 7391
6936 9116
6936 9378
6936 9856
6937 7069
6937 7309
6937 7755
6937 7880
6937 8067
6937 8153
6937 8491
6937 8797
6937 9208
6937 9380
6937 9489
6937 9654
6938 7240
6938 8162
6938 8794
6938 9541
6938 9576
6938 9856
6938 9952
6940 7642
6940 9106
6941 7016
6941 7128
6941 7588
6941 7593
6941 7852
6941 7939
6941 8106
6941 8434
6941 8630
6941 8638
6941 8871
6941 9880
6942 7831
6942 9434
6942 9946
6943 7245
6943 8156
6943 8940
6943 8991
6944 7004
6944 7102
6944 7594
6944 8761
6944 9065
6945 7747
6945 8135
6945 8219
6945 8553
6946 7960
6946 8438
6946 8555
6946 9064
6946 9207
6946 9244
6946 9317
6946 9650
6947 7444
6947 7616
6947 7635
6947 8694
6947 8711
6947 8875
6947 9277
6947 9853
6948 7456
6948 7484
6948 8597
6948 9656
6948 9718
6949 7169
6949 7403
6949 8277
6949 8518
6949 9326
6949 9366
6949 9607
6950 7023
6950 7437
6950 7715
6950 7797
6950 7892
6950 8120
6950 8340
6950 8990
6950 9667
6951 7901
6951 8521
6951 9269
6952 7068
6952 8425
6952 9162
6952 9630
6952 9680
6954 7560
6954 8691
6955 7081
6955 8254
6955 8564
6955 9170
6955 9968
6956 7840
6956 8000
6956 8964
6956 9021
6956 9132
6956 9576
6956 9670
6957 7029
6957 7188
6958 7045
6958 7298
6958 7707
6958 9779
6959 7398
6959 7797
6959 7914
6959 8063
6959 8245
6959 8310
6959 8504
6959 8554
6959 8900
6959 8939
6959 9337
6959 9758
6960 8975
6960 9904
6961 8111
6961 8227
6961 8527
6962 7108
6962 7377
6962 7964
6962 8225
6962 8742
6962 9327
6963 7426
6963 8043
6963 8649
6963 9277
6963 9434
6963 9473
6963 9939
6964 7976
6964 8104
6964 8204
6964 8745
6964 9319
6964 9814
6964 9836
6964 9879
6965 8388
6965 9263
6965 9663
6966 7780
6966 7931
6966 7954
6966 7969
6966 8483
6966 9088
6967 7676
6967 8275
6967 8362
6967 9597
6967 9976
6968 7631
6968 8669
6968 8793
6968 8800
6968 9656
6968 9975
6969 7203
6969 7505
6969 7790
6969 7995
6969 8108
6969 8383
6969 8462
6969 8708
6969 8934
6970 7664
6970 8090
6970 9118
6971 8037
6971 8101
6971 8786
6971 9256
6971 9846
6971 9925
6972 7834
6972 8182
6972 8318
6972 8709
6972 8743
6972 8871
6972 9263
6972 9267
6972 9651
6972 9689
6972 9739
6972 9760
6973 7182
6973 8521
6973 8760
6974 7176
6974 7838
6974 7913
6974 8115
6974 8428
6974 9089
6974 9217
6974 9237
6975 9062
6975 9769
6976 9402
6977 7116
6977 7279
6977 7396
6977 8306
6977 8615
6978 7065
6978 8536
6978 8731
6978 9790
6979 7719
6979 8318
6979 8650
6979 8935
6981 7073
6981 9666
6982 8386
6982 8568
6982 9209
6982 9246
6982 9724
6982 9825
6982 9927
6983 7053
6983 7231
6984 7018
6984 7139
6984 7251
6984 7275
6984 7870
6984 7892
6984 8406
6984 9065
6984 9175
6984 9221
6984 9445
6985 7914
6985 8238
6985 9060
6985 9305
6985 9526
6986 7146
6986 7148
6986 7149
6986 7314
6986 7404
6986 7560
6986 7809
6986 8030
6986 8223
6986 8812
6986 9204
6986 9276
6986 9449
6986 9489
6986 9516
6986 9558
6986 9698
6987 7742
6987 7845
6987 8496
6987 9669
6988 7229
6988 7529
6988 7849
6988 7856
6988 8664
6988 9128
6988 9149
6988 9292
6988 9439
6988 9576
6988 9602
6988 9687
6988 9874
6989 7534
6989 8815
6989 9839
6990 8103
6990 8481
6990 8604
6990 8863
6990 9499
6990 9715
6991 7411
6991 7609
6991 8169
6991 8380
6991 8455
6991 9223
6991 9267
6991 9326
6992 7521
6992 8801
6992 9781
6992 9971
6993 7040
6993 7270
6993 7620
6993 8696
6993 9182
6994 7285
6994 7420
6994 7469
6994 7813
6994 8023
6994 9663
6994 9740
6994 9809
6995 7280
6995 7915
6995 8000
6995 8990
6995 9077
6995 9689
6996 7707
6996 8228
6996 8527
6996 8939
6997 7106
6997 7365
6997 7404
6997 8806
6997 9987
6998 8207
6998 9594
6999 7317
6999 7404
6999 8192
6999 9669
7000 7205
7000 8431
7000 9321
7000 9326
7000 9549
7000 9990
7001 7424
7001 7968
7001 8859
7001 9198
7002 7690
7002 7706
7002 7944
7002 8142
7002 8254
7002 8715
7002 8901
7002 8953
7002 9185
7002 9592
7002 9623
7002 9720
7003 7534
7003 7838
7003 8819
7004 7594
7004 9065
7005 7080
7005 7654
7005 7729
7005 7959
7005 8114
7005 8730
7005 8842
7005 8952
7006 7168
7006 8063
7006 9056
7006 9367
7007 7587
7007 7720
7007 8058
7007 9600
7007 9670
7008 7220
7008 8172
7008 8251
7008 9130
7008 9544
7009 7278
7009 7550
7009 8146
7009 8502
7009 8507
7009 8614
7009 8675
7009 9173
7009 9271
7009 9477
7009 9929
7010 7462
7010 7980
7010 8127
7010 8371
7010 8880
7011 7667
7011 7676
7011 8213
7011 9966
7012 7021
7012 8784
7013 7143
7013 7463
7013 7708
7013 7956
7013 8764
7013 9409
7013 9488
7014 7123
7014 8034
7014 8115
7014 8135
7014 8408
7014 9281
7015 7045
7015 7405
7015 8303
7015 8722
7016 7939
7016 8882
7017 7501
7017 8112
7017 8117
7017 8228
7017 9256
7017 9656
7017 9820
7018 7293
7018 8285
7018 8705
7018 9001
7018 9023
7018 9763
7018 9897
7018 9948
7019 7956
7019 8901
7019 9488
7020 7601
7020 7918
7020 7935
7020 8526
7020 8913
7020 9398
7020 9723
7020 9787
7021 7475
7021 7606
7021 8032
7021 8758
7021 8778
7021 9323
7021 9406
7022 7531
7022 7936
7022 8446
7022 9632
7022 9871
7023 7038
7023 7205
7023 7284
7023 7334
7023 7540
7023 7653
7023 7784
7023 8030
7023 8517
7023 8681
7023 9429
7023 9456
7023 9478
7023 9619
7024 7200
7024 7790
7024 8399
7024 8522
7024 8792
7024 9756
7025 7500
7025 8446
7025 8721
7026 7177
7026 7492
7026 8262
7026 8408
7026 9178
7026 9670
7027 7359
7027 7539
7027 7799
7027 8862
7027 9377
7028 7240
7028 7784
7028 8030
7028 8849
7029 7208
7029 7228
7029 8755
7029 9298
7030 7812
7030 7951
7030 8294
7030 8415
7030 8492
7030 8661
7030 9034
7030 9164
7030 9679
7030 9879
7030 9913
7031 9508
7032 7182
7032 8433
7033 7788
7033 8333
7034 7533
7034 8649
7034 8714
7034 8897
7034 8964
7034 9181
7034 9225
7034 9452
7034 9919
7035 7064
7035 7310
7035 7461
7035 7478
7035 7510
7035 7634
7035 7794
7035 8051
7035 8504
7035 8783
7035 9179
7035 9182
7035 9190
7035 9284
7035 9419
7035 9539
7036 7623
7036 7848
7036 8538
7036 8701
7036 8832
7036 8908
7036 9008
7036 9540
7037 7047
7037 7276
7037 7308
7037 7717
7037 7723
7037 8584
7037 8774
7037 9440
7038 7398
7038 7948
7038 9089
7038 9236
7039 7200
7039 7772
7039 8023
7039 8762
7040 7222
7040 8649
7041 7397
7041 8234
7041 8365
7041 8701
7041 8865
7041 9414
7042 9746
7042 9934
7043 7782
7043 9270
7043 9396
7043 9452
7043 9458
7043 9900
7044 8047
7045 7296
7045 7370
7045 7459
7045 7554
7045 7647
7045 8047
7045 8811
7045 8822
7045 9121
7045 9787
7046 7066
7046 8097
7046 9680
7046 9974
7047 8309
7047 8399
7048 7329
7048 7474
7048 7612
7048 7987
7048 8461
7049 7166
7049 8650
7049 9177
7049 9554
7050 7128
7050 7314
7051 7659
7051 7891
7051 8269
7051 8428
7051 9130
7052 7289
7052 7327
7052 7450
7052 7621
7052 8363
7052 8651
7052 8886
7052 8944
7052 8975
7052 8995
7052 9075
7052 9139
7052 9444
7052 9776
7053 7150
7053 7317
7053 7493
7053 7719
7053 8247
7053 8505
7053 8822
7053 9325
7053 9371
7053 9423
7053 9764
7054 7279
7054 7887
7055 7332
7055 7417
7055 8337
7055 9252
7055 9578
7055 9802
7055 9814
7056 9935
7057 8385
7058 7717
7058 7741
7058 8878
7058 9036
7059 7132
7059 7631
7059 8860
7059 8978
7059 9025
7059 9145
7059 9575
7059 9623
7059 9677
7059 9755
7059 9764
7059 9910
7060 8441
7060 9861
7061 7347
7061 7789
7061 8058
7061 8598
7062 7200
7062 7274
7062 9392
7062 9674
7063 7504
7063 8040
7063 8108
7063 8216
7063 8436
7063 8886
7063 9257
7063 9273
7063 9570
7063 9689
7064 7233
7064 7576
7064 7662
7064 7696
7064 8025
7064 9419
7064 9539
7064 9752
7064 9839
7065 8134
7065 8755
7065 9163
7065 9506
7066 7478
7066 7574
7066 7674
7066 7778
7066 8097
7066 8637
7066 8932
7067 8045
7067 9964
7068 8420
7068 8436
7068 8672
7068 9299
7068 9658
7069 7221
7069 7297
7069 7775
7069 7824
7069 8941
7070 8040
7070 8852
7070 9914
7071 7460
7071 8118
7071 9038
7072 7950
7072 8039
7072 8354
7072 8472
7072 9004
7073 7089
7073 7637
7073 8326
7073 8788
7073 8828
7073 8863
7073 9666
7073 9677
7074 7235
7074 7987
7074 8578
7074 9820
7074 9918
7075 8018
7075 8116
7075 9724
7076 8253
7076 8656
7076 9339
7077 7470
7077 7651
7077 8811
7077 9118
7077 9330
7077 9620
7078 7261
7078 8563
7078 8731
7078 8777
7079 7762
7079 8495
7079 8540
7079 9065
7079 9456
7079 9834
7080 8606
7080 8730
7080 9656
7081 7168
7081 7217
7081 7451
7081 7869
7081 7894
7081 8260
7081 8358
7081 8409
7081 8954
7081 8967
7081 9008
7081 9455
7081 9538
7081 9696
7081 9867
7081 9962
7082 7104
7082 7281
7082 7541
7082 7550
7082 7923
7082 8081
7082 8089
7082 8179
7082 8373
7082 8835
7082 8894
7082 9121
7082 9526
7083 7341
7083 7799
7083 7861
7083 8211
7083 8340
7083 8650
7083 9015
7084 7933
7084 9541
7084 9579
7085 7091
7085 7223
7085 7855
7085 8152
7085 8349
7085 8844
7085 8961
7085 9068
7085 9119
7085 9921
7086 8393
7086 8422
7086 8788
7086 9241
7086 9289
7086 9341
7086 9352
7087 7816
7087 7943
7087 8139
7087 8167
7087 8799
7087 9909
7088 8386
7088 8584
7088 8878
7088 9400
7088 9790
7089 8146
7089 8234
7089 8541
7089 8673
7089 9832
7089 9901
7089 9919
7090 8197
7091 7401
7091 7848
7091 7914
7091 8302
7092 7695
7092 7935
7092 9410
7093 8225
7093 9404
7094 8432
7094 9220
7094 9443
7094 9508
7095 7193
7095 7195
7095 7822
7095 9118
7096 7605
7096 8074
7096 8792
7096 9824
7097 7567
7097 8103
7097 8287
7097 9265
7097 9594
7097 9596
7098 8058
7098 8189
7098 8350
7098 8484
7098 9282
7098 9512
7099 7484
7100 7827
7100 7968
7100 8212
7100 8402
7100 8540
7100 9145
7100 9542
7100 9679
7101 7338
7101 7721
7101 8422
7101 9052
7101 9255
7101 9340
7102 7146
7102 7191
7102 7255
7102 7696
7102 7710
7102 8024
7102 8058
7102 8254
7102 9143
7102 9466
7103 7399
7103 7618
7103 7817
7103 8156
7103 8300
7103 9013
7103 9298
7104 7291
7104 7591
7104 7613
7104 8412
7104 8720
7104 8931
7104 9418
7105 7426
7105 7476
7105 7743
7105 8074
7105 8144
7105 8585
7105 9567
7105 9846
7106 7899
7106 9966
7107 7259
7107 7317
7107 8440
7107 8630
7107 9424
7108 7296
7108 7367
7108 7933
7108 7986
7108 8233
7108 8569
7108 9336
7108 9538
7108 9569
7109 8210
7109 8674
7109 8814
7109 8907
7109 9378
7109 9549
7110 7231
7110 7271
7110 7375
7110 8820
7110 9111
7110 9166
7110 9640
7110 9674
7110 9873
7111 7594
7111 8147
7111 9065
7111 9139
7112 9853
7112 9896
7113 7417
7113 8845
7113 9562
7114 7434
7114 7486
7114 7765
7114 7999
7114 8089
7114 8220
7114 8270
7114 8939
7114 9049
7114 9253
7115 7921
7115 9879
7116 7943
7117 8464
7117 9874
7118 7261
7118 7517
7118 7709
7118 7740
7118 7774
7118 8740
7118 8923
7118 9117
7118 9536
7119 7257
7119 9265
7120 8472
7120 9778
7121 7245
7121 7528
7121 9023
7121 9289
7121 9341
7121 9352
7122 7462
7122 7670
7122 8952
7122 9056
7122 9555
7122 9864
7122 9981
7123 7495
7123 7835
7124 7259
7124 7997
7124 8852
7125 7454
7125 7774
7125 8034
7125 9196
7125 9226
7125 9484
7125 9625
7126 7478
7126 9269
7127 7958
7127 8641
7127 8670
7127 8948
7128 8719
7129 7267
7129 7556
7129 7751
7129 8035
7129 8059
7129 9042
7129 9669
7130 8201
7130 8883
7130 9070
7130 9483
7130 9637
7131 8754
7131 9484
7131 9901
7132 7903
7132 9029
7132 9217
7132 9970
7133 7163
7133 7185
7133 7628
7134 8386
7134 8910
7134 9374
7134 9870
7135 7208
7136 7441
7136 9876
7137 7633
7137 8027
7137 8720
7137 9068
7137 9870
7138 7354
7138 9141
7139 7188
7139 7245
7139 7818
7139 8266
7139 8402
7139 8941
7139 9192
7139 9210
7140 7208
7140 7744
7140 8072
7140 8094
7140 8406
7140 9323
7141 8466
7141 9403
7141 9664
7141 9707
7142 7610
7142 7869
7142 9593
7142 9714
7143 7342
7143 7484
7143 7591
7143 8258
7143 8567
7143 8665
7143 9162
7144 7241
7144 7720
7144 8123
7144 8734
7144 8815
7144 8992
7144 9839
7145 8720
7145 9517
7146 8069
7146 8208
7146 8759
7147 8375
7147 8816
7147 9663
7147 9692
7148 8284
7148 8342
7148 9487
7149 8495
7149 8987
7150 7609
7150 8307
7150 8587
7150 8829
7150 8867
7150 9457
7151 7949
7151 8367
7151 8819
7151 9657
7151 9946
7152 8329
7152 8462
7153 7668
7153 8567
7153 9034
7153 9156
7153 9428
7153 9660
7154 7307
7154 7849
7154 8018
7154 8147
7154 8359
7154 8723
7154 9001
7154 9068
7154 9869
7154 9924
7155 8025
7155 8472
7156 7364
7156 7713
7156 8026
7156 8335
7156 8367
7156 8459
7156 8562
7156 8935
7156 8994
7156 9170
7156 9190
7156 9208
7156 9253
7156 9341
7156 9992
7157 7595
7157 7604
7157 8134
7157 8759
7157 9067
7157 9396
7157 9712
7157 9901
7158 7748
7158 8071
7158 8196
7158 8217
7158 9640
7158 9715
7158 9733
7159 7755
7159 8279
7159 8970
7159 9758
7159 9820
7159 9978
7159 9988
7160 7202
7160 7237
7160 8075
7160 9832
7160 9978
7161 7469
7161 7813
7161 8921
7161 8949
7161 8956
7163 7235
7163 7350
7163 7987
7163 8001
7163 8029
7163 8332
7163 8580
7163 9810
7163 9939
7164 7224
7164 9039
7164 9093
7164 9224
7164 9423
7164 9598
7164 9709
7165 8302
7165 8768
7166 7240
7166 7743
7166 8441
7166 8735
7166 9128
7166 9170
7166 9333
7166 9628
7167 7263
7167 7882
7167 8392
7167 9093
7167 9121
7167 9251
7167 9532
7168 7317
7168 7329
7168 7385
7168 7856
7168 7859
7168 8035
7168 8125
7168 8199
7168 8233
7168 8527
7168 8785
7168 9010
7168 9098
7168 9835
7169 7399
7169 8518
7169 8775
7169 8963
7169 9366
7170 7731
7171 8119
7171 8404
7171 8801
7171 9654
7172 8006
7172 8119
7172 8137
7172 8669
7172 9059
7172 9222
7172 9553
7174 7644
7174 8906
7174 9362
7174 9590
7175 7424
7176 8263
7176 8379
7176 8883
7176 9186
7176 9985
7177 8128
7177 8732
7178 7411
7178 8689
7178 8803
7178 9173
7178 9306
7178 9700
7178 9964
7179 7695
7179 7802
7179 7904
7179 8708
7179 8881
7179 9060
7180 8302
7180 8533
7180 8779
7180 8835
7180 9013
7180 9087
7180 9131
7180 9283
7180 9701
7181 7524
7181 9259
7181 9327
7181 9911
7182 9280
7182 9890
7182 9935
7183 7578
7183 7886
7183 8621
7183 8870
7183 9359
7183 9458
7184 7209
7184 8202
7185 9869
7186 8071
7186 8337
7186 8452
7186 8868
7186 9146
7186 9639
7187 8618
7187 8720
7187 9517
7188 7498
7188 7556
7188 8431
7188 8461
7188 8583
7188 9007
7188 9156
7188 9172
7188 9257
7189 7766
7189 8285
7189 8527
7189 9042
7190 7362
7190 8400
7190 8411
7190 8485
7190 8808
7190 9044
7190 9674
7191 8122
7191 9037
7191 9257
7192 7421
7192 7478
7192 7618
7192 8708
7192 9269
7192 9445
7192 9581
7193 8328
7193 9118
7194 7553
7194 7597
7194 8230
7195 7861
7196 9104
7196 9215
7196 9688
7197 7947
7198 7200
7198 7841
7198 8394
7198 8658
7198 8729
7198 9019
7199 8346
7199 8575
7199 8749
7199 9283
7199 9434
7199 9989
7200 7298
7200 8106
7200 8182
7200 8361
7200 8506
7200 8881
7200 8949
7200 9270
7200 9389
7200 9685
7200 9815
7201 7814
7201 8088
7201 8123
7201 8386
7201 9946
7202 8026
7202 8165
7202 8605
7202 8755
7202 9235
7202 9524
7203 8383
7203 9914
7204 8852
7204 9309
7204 9351
7204 9538
7204 9890
7205 7539
7205 7737
7205 7895
7205 8757
7205 9125
7205 9326
7205 9549
7206 9494
7207 7642
7207 7867
7207 9416
7207 9444
7208 7872
7208 8055
7208 8542
7208 8611
7208 8904
7208 9208
7208 9452
7208 9605
7209 7589
7209 7877
7209 8381
7209 8688
7210 7844
7210 8026
7210 8563
7210 9187
7210 9307
7210 9842
7211 8191
7211 8336
7211 8412
7211 8931
7212 7343
7212 7808
7212 7973
7212 8506
7212 8886
7212 9052
7212 9489
7212 9623
7213 7675
7213 8084
7213 8174
7213 8469
7213 8701
7213 9048
7213 9637
7213 9846
7214 7448
7214 8260
7214 8302
7214 9003
7214 9500
7215 7379
7215 9784
7215 9799
7216 7507
7216 8823
7216 8872
7216 9915
7216 9999
7217 7447
7217 7992
7217 8032
7217 8062
7217 8067
7217 8089
7217 8736
7217 8825
7217 9053
7217 9441
7217 9591
7218 7952
7218 8700
7218 9997
7219 7515
7219 8249
7219 8258
7219 8951
7219 9818
7220 7763
7220 7779
7220 8159
7220 8697
7220 8774
7220 8951
7220 9073
7221 7669
7221 8337
7221 8428
7221 9001
7221 9287
7221 9938
7222 7600
7222 8714
7222 9131
7223 7236
7223 7936
7223 8349
7223 8882
7223 8961
7223 9112
7223 9921
7224 7626
7224 7771
7224 8576
7225 8592
7225 8720
7225 9424
7226 7841
7226 8001
7226 9173
7226 9232
7227 7429
7227 9578
7228 7497
7228 7882
7228 8351
7228 9502
7228 9953
7229 8324
7229 8510
7229 9398
7230 7858
7230 8538
7230 8564
7230 9360
7230 9532
7231 8932
7231 9098
7231 9111
7231 9640
7231 9912
7232 7618
7232 7803
7232 8030
7232 8102
7232 8146
7232 8300
7232 8673
7232 8874
7232 9931
7233 7279
7233 8261
7233 8306
7233 8411
7233 8549
7233 8973
7234 8406
7234 8615
7235 7487
7235 8649
7235 9325
7235 9810
7236 8028
7236 8214
7236 9171
7236 9241
7236 9448
7236 9512
7237 7284
7237 7953
7237 8586
7237 8993
7237 9098
7237 9276
7237 9774
7237 9783
7238 7247
7239 7571
7239 7683
7239 8293
7239 8917
7240 7467
7240 7996
7240 8619
7240 8652
7240 8683
7240 9124
7240 9364
7240 9761
7240 9780
7240 9942
7241 7351
7241 7592
7241 9904
7242 7857
7242 8176
7242 9189
7242 9191
7242 9398
7242 9572
7242 9999
7243 8555
7243 8618
7243 9193
7243 9208
7243 9396
7244 7532
7244 8683
7244 8746
7244 9432
7244 9558
7245 7329
7245 7455
7245 7890
7245 8156
7245 8186
7245 8583
7245 8666
7245 9320
7245 9376
7245 9413
7246 8858
7246 9122
7247 7359
7247 7915
7247 8315
7247 9377
7248 7448
7248 7691
7248 8453
7248 9345
7249 8851
7249 9470
7250 7447
7250 8153
7250 8770
7250 9184
7250 9295
7250 9307
7250 9390
7250 9617
7251 7349
7251 7791
7251 8054
7251 8383
7251 8694
7252 7799
7252 8024
7252 8394
7252 8701
7252 9011
7252 9683
7253 8387
7254 8307
7254 9515
7254 9762
7255 7696
7255 7710
7255 8236
7255 8441
7255 8754
7255 9420
7255 9498
7255 9540
7255 9726
7256 7536
7256 8236
7256 8478
7256 8604
7256 9264
7257 7307
7257 7462
7257 8308
7257 8443
7257 9268
7257 9444
7257 9571
7258 7723
7258 8110
7258 8643
7258 9180
7259 7976
7259 8063
7259 8604
7259 8788
7259 9671
7260 7347
7260 7673
7260 8243
7260 8976
7260 9731
7260 9744
7261 7377
7261 7468
7261 8169
7261 8488
7261 8491
7261 8852
7262 7308
7262 8233
7262 8558
7262 8599
7262 9209
7262 9289
7262 9316
7263 7839
7263 7882
7263 7913
7263 8835
7263 9035
7263 9768
7264 9444
7264 9533
7265 7460
7265 8310
7265 8879
7265 9071
7265 9217
7266 8704
7266 8976
7266 9509
7266 9991
7267 8059
7267 8143
7267 8347
7267 9042
7267 9432
7268 7523
7268 7666
7268 7926
7268 8051
7268 8225
7269 7497
7269 7802
7269 7915
7269 8406
7269 8453
7269 9060
7269 9951
7270 8936
7271 7455
7271 7642
7271 7867
7271 8096
7271 9861
7272 8954
7273 8156
7273 8337
7274 7809
7274 8724
7274 9153
7274 9765
7275 7870
7275 8372
7275 8924
7275 9175
7276 7533
7276 7913
7276 8228
7276 8486
7276 8939
7276 9194
7276 9658
7276 9745
7276 9765
7277 8300
7277 8470
7277 8623
7278 7711
7278 7853
7278 8118
7278 8461
7278 9090
7279 7336
7279 7887
7279 8224
7279 8715
7279 9355
7279 9371
7279 9401
7279 9420
7279 9711
7279 9826
7279 9936
7280 7568
7280 8175
7280 8634
7280 9062
7280 9974
7281 7475
7281 8081
7281 8099
7281 8177
7281 8345
7282 7366
7282 7792
7282 8071
7282 8148
7282 8535
7282 9111
7282 9382
7282 9612
7283 8230
7283 8620
7283 8996
7283 9573
7284 7803
7284 7876
7284 8517
7285 7378
7285 7593
7285 7951
7285 8013
7285 8712
7285 8737
7285 9214
7285 9852
7285 9863
7285 9897
7286 7493
7286 7719
7286 8144
7286 9025
7286 9196
7286 9462
7287 7449
7287 7556
7287 7769
7287 7863
7287 8104
7287 8172
7287 8250
7287 8358
7287 8367
7287 8597
7287 9310
7287 9475
7287 9763
7287 9774
7288 7831
7288 9357
7288 9445
7288 9738
7289 7346
7289 7360
7289 7459
7289 7621
7289 8519
7289 8614
7289 8886
7289 8975
7289 9064
7289 9139
7289 9153
7289 9154
7289 9204
7289 9453
7289 9486
7290 7832
7290 9276
7291 7317
7291 7468
7291 7474
7291 8006
7291 8861
7291 9011
7291 9657
7291 9819
7291 9906
7292 8052
7292 8144
7292 9114
7292 9396
7293 7322
7293 8261
7293 8285
7293 8309
7293 8705
7293 9066
7293 9415
7293 9948
7294 8137
7294 8355
7294 8950
7294 9792
7295 7683
7295 8430
7295 8612
7295 9092
7296 7459
7296 8450
7296 8811
7296 9480
7297 7707
7297 8584
7297 9159
7297 9309
7297 9851
7298 7378
7298 9324
7298 9934
7299 7774
7299 7935
7299 8393
7300 8252
7300 8529
7301 7595
7301 7839
7301 9065
7301 9444
7301 9499
7302 9536
7302 9743
7303 7875
7303 7977
7303 8034
7303 8302
7303 8978
7303 9330
7303 9445
7303 9972
7304 7549
7304 7574
7304 7801
7304 7956
7304 8042
7305 7466
7305 7626
7305 7629
7305 8328
7305 8888
7305 9407
7306 7361
7306 8417
7306 8692
7306 8920
7306 9116
7306 9357
7306 9638
7306 9856
7307 7685
7307 7744
7307 7799
7307 7855
7307 9265
7307 9456
7307 9504
7307 9571
7308 7679
7308 7747
7308 8054
7308 8101
7308 8233
7308 8468
7308 8842
7309 7346
7309 9380
7309 9755
7310 8051
7310 8796
7310 9243
7311 7858
7311 9831
7312 8049
7312 8520
7312 9914
7313 7495
7313 9716
7313 9874
7314 7418
7314 8540
7314 8719
7314 9460
7315 7354
7315 7789
7315 8277
7315 8474
7315 8952
7315 9158
7316 7505
7316 7659
7316 9147
7316 9256
7317 7472
7317 8112
7317 8177
7317 8424
7317 8493
7317 8535
7318 7527
7318 9261
7319 8778
7319 9209
7319 9493
7319 9931
7320 7483
7320 8207
7320 8845
7320 9522
7321 8882
7321 9090
7321 9826
7322 7402
7322 8359
7322 8566
7323 7841
7323 9414
7323 9823
7324 8273
7324 8737
7324 9345
7324 9671
7325 7566
7325 8955
7326 7614
7326 8487
7326 8581
7326 8800
7326 9098
7326 9763
7326 9904
7327 7600
7327 7981
7327 8043
7327 8236
7327 8728
7327 9360
7327 9392
7327 9498
7328 7507
7328 7524
7328 7736
7328 7753
7328 9093
7328 9385
7329 8461
7329 9060
7329 9385
7330 8322
7330 9051
7331 8396
7331 8713
7331 8800
7331 9363
7332 8339
7332 8616
7332 8766
7332 9747
7333 8263
7333 8746
7333 9890
7333 9974
7334 7403
7334 8782
7334 9375
7335 8289
7335 8372
7335 8464
7335 8820
7335 9049
7335 9502
7335 9663
7335 9675
7335 9871
7336 7528
7336 9776
7337 7461
7337 9077
7337 9404
7338 7599
7338 7970
7338 8010
7338 8148
7338 8388
7338 8398
7338 8561
7338 8645
7338 9447
7339 7906
7339 7921
7339 9066
7339 9244
7339 9580
7340 8800
7340 9638
7340 9923
7341 7425
7341 7599
7341 7779
7341 8015
7341 8587
7341 8816
7341 8926
7341 9089
7341 9207
7341 9409
7341 9791
7341 9950
7342 7589
7342 7949
7342 7961
7342 8104
7342 8148
7342 9650
7342 9745
7342 9946
7343 8145
7343 9024
7344 8380
7344 9489
7344 9557
7346 7351
7346 7486
7346 8079
7346 8892
7346 8982
7346 9101
7346 9434
7346 9721
7347 7477
7347 9033
7347 9256
7347 9653
7347 9993
7348 8198
7348 9307
7348 9622
7348 9928
7349 7808
7349 7957
7349 8042
7349 8103
7349 8407
7349 9307
7350 7790
7350 9967
7351 7962
7351 8079
7351 8422
7351 8749
7351 8988
7351 9721
7352 7936
7352 8065
7352 8403
7352 9871
7353 7381
7353 8112
7353 8269
7353 8494
7353 8747
7353 9819
7353 9965
7354 8540
7354 8705
7354 8759
7355 7699
7355 7932
7355 8082
7355 8386
7356 8451
7356 9201
7356 9979
7357 7850
7357 7942
7357 7956
7357 8049
7357 9409
7357 9488
7358 7676
7358 8032
7358 8098
7358 8657
7358 8833
7358 9522
7358 9697
7358 9791
7358 9863
7359 7798
7359 8446
7359 8472
7359 8862
7359 8989
7359 9377
7360 7781
7360 7817
7360 8093
7360 8392
7360 9508
7361 7514
7361 7520
7361 7845
7361 8034
7361 8771
7361 8812
7361 9012
7361 9040
7361 9192
7361 9439
7361 9960
7362 7514
7362 7556
7362 7564
7362 7603
7362 7749
7363 7602
7363 8278
7363 8778
7363 9619
7364 8208
7364 8988
7364 9207
7365 7552
7365 8491
7365 8658
7365 9166
7366 9111
7366 9831
7367 7422
7367 7473
7367 9286
7367 9538
7367 9569
7367 9708
7367 9946
7368 7838
7369 7396
7369 8855
7369 9345
7369 9376
7370 7384
7370 7823
7370 8191
7370 9753
7371 7393
7371 8080
7371 8228
7371 8486
7371 8771
7372 8667
7372 8823
7372 9607
7373 7689
7373 8976
7373 9576
7373 9717
7374 7653
7374 8553
7374 9687
7374 9877
7374 9906
7375 7385
7375 8763
7375 9111
7375 9280
7375 9640
7375 9802
7375 9916
7376 7806
7376 7954
7376 8734
7376 9092
7376 9671
7377 7964
7377 8225
7377 8239
7377 9000
7378 7428
7378 7563
7378 8436
7378 9207
7378 9540
7378 9649
7378 9852
7379 8733
7379 9069
7380 7773
7380 8882
7380 9044
7380 9090
7380 9667
7380 9826
7381 8034
7382 7464
7382 7597
7382 7627
7382 7700
7382 8196
7382 8707
7382 8850
7382 9024
7382 9304
7382 9343
7382 9460
7382 9860
7382 9895
7383 8630
7383 8818
7383 9142
7384 8337
7384 8721
7384 8800
7385 7575
7385 7856
7385 8199
7385 8317
7385 8747
7385 8938
7385 9010
7385 9878
7385 9887
7386 7464
7386 7540
7386 7585
7386 8768
7387 8220
7387 9167
7387 9353
7387 9428
7387 9851
7388 8447
7388 8633
7388 9893
7389 7441
7389 9604
7389 9629
7390 8143
7390 8872
7390 8887
7390 8990
7391 8920
7391 9116
7391 9577
7391 9638
7391 9856
7392 8659
7393 8228
7393 8486
7394 7806
7394 7940
7394 8896
7394 9078
7394 9284
7394 9289
7395 7402
7395 7462
7395 7570
7395 7820
7395 8853
7395 9493
7396 7945
7396 7967
7396 8203
7396 8852
7396 8942
7396 8968
7396 9345
7396 9480
7397 7461
7397 8428
7397 8720
7397 9955
7398 9061
7398 9577
7399 7795
7399 8066
7399 8628
7399 9167
7400 8428
7400 9286
7401 7826
7401 7862
7401 7953
7401 8312
7401 8502
7401 8946
7401 8987
7401 9280
7401 9783
7401 9968
7402 7443
7402 7745
7402 8169
7402 9325
7402 9410
7402 9765
7403 8200
7403 8826
7403 9016
7403 9392
7404 7953
7404 8121
7404 8873
7405 8578
7405 8798
7405 9284
7405 9621
7406 7521
7406 7862
7406 8123
7406 8179
7406 8529
7406 9231
7407 7972
7407 8026
7407 8524
7407 9841
7408 8343
7408 8401
7408 8634
7408 9035
7408 9690
7409 8395
7409 8955
7409 8982
7410 7464
7410 7741
7410 8271
7410 8450
7410 8595
7410 8707
7410 8723
7410 8817
7410 9703
7410 9811
7410 9820
7410 9824
7410 9856
7410 9859
7411 9324
7411 9727
7411 9974
7412 7515
7412 7727
7412 8406
7412 8839
7413 7915
7414 8021
7414 8226
7414 9418
7415 7699
7415 8248
7415 8865
7415 9016
7415 9061
7415 9130
7415 9888
7415 9974
7416 9017
7416 9083
7416 9609
7416 9750
7417 8595
7417 9422
7417 9516
7418 8058
7418 8123
7418 8170
7418 8308
7419 7757
7419 9183
7419 9914
7420 7462
7420 7486
7420 8267
7420 8513
7420 9339
7420 9718
7421 8315
7421 8630
7421 9428
7421 9493
7422 7689
7422 8937
7422 9022
7423 8126
7423 8521
7423 8617
7423 8882
7423 9234
7423 9286
7423 9344
7423 9886
7423 9894
7424 7624
7424 7772
7424 7807
7424 7808
7424 8138
7424 8315
7424 8873
7424 9314
7424 9362
7424 9502
7424 9922
7425 7740
7426 7639
7426 7647
7426 7670
7426 8649
7426 9363
7426 9473
7426 9647
7426 9843
7427 8723
7427 9839
7428 7962
7428 8511
7428 9236
7428 9562
7428 9755
7429 7445
7429 7513
7429 7808
7429 7822
7429 7900
7429 8307
7429 8601
7429 8782
7429 8992
7429 9101
7429 9164
7429 9218
7429 9991
7430 7832
7430 8345
7430 8798
7430 9338
7430 9649
7431 7694
7431 8102
7431 8808
7431 9110
7432 8780
7432 9542
7432 9561
7432 9839
7433 7592
7433 7935
7433 8058
7433 8328
7433 8570
7433 8929
7433 9062
7434 8422
7434 9674
7435 8242
7435 9357
7435 9597
7435 9675
7436 7506
7436 8175
7436 8614
7436 9126
7437 7797
7437 8343
7437 8625
7437 9300
7437 9337
7437 9349
7437 9423
7437 9667
7438 8243
7438 8441
7438 8539
7438 9118
7438 9664
7439 8889
7439 9086
7439 9856
7439 9890
7440 7653
7440 8397
7440 8498
7441 7587
7441 9844
7442 7575
7442 7747
7442 8116
7442 8177
7442 8443
7442 9264
7443 7716
7443 8175
7443 8451
7443 8520
7443 8742
7443 8869
7443 9636
7443 9651
7444 8265
7444 8570
7444 8942
7445 7687
7445 7865
7445 8466
7445 9316
7445 9831
7446 7713
7446 8033
7446 8461
7446 8832
7446 9152
7446 9524
7446 9801
7447 8032
7447 8141
7447 9814
7448 7622
7448 7691
7448 7786
7448 8228
7448 8453
7448 9423
7449 7464
7449 7478
7449 7843
7449 8160
7449 8742
7449 8909
7449 8957
7449 9084
7450 8901
7450 8995
7450 9098
7450 9210
7450 9787
7451 8260
7451 8283
7451 8358
7451 9164
7451 9696
7453 7705
7453 7910
7453 8486
7453 8687
7453 9316
7453 9318
7453 9352
7453 9432
7454 8798
7455 7482
7455 7646
7455 7694
7455 7866
7455 8013
7455 8047
7455 8241
7455 8507
7455 8544
7455 8711
7455 8815
7455 9056
7455 9227
7455 9360
7455 9850
7456 8417
7456 8684
7456 9210
7457 8670
7457 8964
7457 8989
7457 9949
7458 7610
7458 8273
7458 8388
7458 8769
7458 9237
7458 9339
7458 9521
7459 8117
7460 7481
7460 7586
7460 7891
7460 8198
7460 8290
7460 8784
7460 8848
7460 9038
7460 9098
7460 9565
7460 9897
7461 7478
7461 7825
7461 7916
7461 8134
7461 8221
7461 8361
7461 8464
7461 8705
7461 8709
7461 9177
7461 9199
7461 9209
7461 9794
7461 9976
7462 7830
7462 7833
7462 7870
7462 8019
7462 8052
7462 8128
7462 8210
7462 9094
7462 9339
7462 9446
7462 9598
7462 9718
7462 9729
7462 9829
7463 8176
7463 8594
7463 8751
7463 9373
7463 9520
7463 9778
7463 9837
7464 7982
7464 8147
7464 8374
7464 8650
7464 9183
7464 9368
7464 9378
7466 8363
7466 9100
7467 7942
7467 8161
7467 8258
7467 8305
7467 8406
7467 8650
7467 8894
7467 9040
7467 9592
7468 8225
7468 8318
7468 8333
7468 9172
7469 7722
7470 9369
7471 7854
7471 8102
7471 8121
7471 8486
7471 8837
7471 9485
7471 9659
7471 9867
7472 8424
7472 8948
7472 9765
7472 9965
7473 7625
7473 7649
7473 7889
7473 8062
7473 8499
7473 8665
7474 7946
7474 8057
7474 8218
7474 8310
7474 8550
7474 9221
7474 9594
7475 8311
7475 8680
7476 8676
7476 9326
7476 9413
7476 9549
7476 9815
7476 9990
7477 9033
7478 7906
7478 9269
7479 8349
7479 8571
7479 8766
7479 9851
7480 9220
7480 9677
7481 7643
7481 8079
7481 9092
7481 9995
7482 8047
7482 8072
7482 8176
7483 7643
7483 7669
7483 7768
7483 7853
7483 8207
7483 8441
7483 8509
7484 7934
7484 8382
7484 8666
7484 8890
7484 9261
7484 9537
7484 9650
7484 9890
7485 7600
7485 7735
7485 7759
7485 7787
7485 8116
7485 8285
7485 8625
7485 9074
7485 9475
7485 9675
7485 9721
7486 7536
7486 7670
7486 7797
7486 8317
7486 8483
7486 8574
7486 8846
7486 9126
7486 9322
7486 9428
7487 7641
7487 8126
7487 8225
7487 8496
7487 8972
7487 9186
7488 8970
7488 9373
7488 9893
7489 7981
7489 8003
7489 8265
7490 7944
7490 8795
7490 8823
7490 9007
7490 9151
7490 9408
7491 7591
7491 9025
7491 9152
7492 7823
7492 9153
7492 9845
7493 7498
7493 7840
7493 8230
7493 9118
7493 9268
7493 9680
7493 9750
7494 7647
7494 8005
7494 8228
7494 8890
7494 9465
7495 8407
7495 8689
7495 9129
7495 9640
7496 8392
7496 8802
7497 7522
7497 8250
7497 8351
7497 8565
7497 9267
7498 7840
7499 9126
7499 9994
7500 7561
7500 7736
7500 8377
7500 9220
7500 9456
7500 9721
7501 7721
7501 8112
7501 8117
7501 9820
7502 7949
7502 7952
7502 8456
7502 9656
7502 9723
7503 7791
7503 8958
7503 9209
7504 9273
7504 9670
7505 7536
7505 7545
7505 7607
7505 8167
7505 8539
7505 8681
7505 8755
7505 8785
7505 9069
7505 9154
7505 9512
7506 7750
7506 8272
7506 8682
7506 8859
7506 9126
7506 9400
7506 9834
7507 8053
7507 8671
7507 8897
7507 9502
7507 9804
7507 9885
7508 8272
7508 9338
7508 9621
7509 8074
7509 8223
7509 8383
7509 9388
7509 9415
7509 9509
7509 9753
7510 8577
7510 9058
7510 9120
7510 9396
7511 8034
7511 8184
7511 8228
7511 8466
7511 9154
7511 9330
7512 8695
7512 9163
7512 9675
7512 9685
7513 7710
7513 8191
7513 8702
7513 8810
7513 8864
7513 9703
7513 9721
7513 9843
7514 9118
7514 9970
7515 7546
7515 7858
7515 8295
7515 8448
7515 9383
7515 9953
7516 7699
7516 8891
7516 9525
7517 8026
7517 9257
7517 9370
7517 9706
7518 7757
7518 8311
7518 8355
7518 8394
7518 9325
7519 7831
7519 8818
7520 7539
7520 8207
7520 9674
7520 9715
7521 8801
7521 9455
7522 8713
7522 9322
7522 9887
7523 7555
7523 8461
7524 7741
7524 8380
7524 9557
7524 9884
7525 8172
7525 9480
7526 7639
7526 7716
7526 8075
7526 8172
7526 8278
7526 9483
7528 7693
7528 8060
7528 9259
7528 9776
7529 8184
7529 8219
7529 8435
7529 8729
7529 8812
7529 9733
7529 9742
7530 7589
7530 7592
7530 7676
7530 7679
7530 8354
7530 9323
7530 9450
7530 9507
7530 9694
7531 7729
7531 8065
7531 9653
7531 9871
7532 8746
7532 9597
7532 9663
7533 7806
7533 9438
7533 9695
7534 7795
7534 7932
7534 8852
7534 9839
7535 7670
7535 9243
7535 9514
7536 7764
7536 8574
7536 8824
7536 9021
7536 9322
7536 9722
7536 9953
7537 7579
7537 7696
7537 8071
7537 8262
7537 8617
7537 9853
7538 7683
7538 9257
7538 9397
7538 9939
7539 7617
7539 7788
7539 7848
7539 7987
7539 8318
7539 9450
7539 9845
7540 8021
7540 8862
7540 9143
7540 9427
7540 9645
7540 9805
7540 9868
7541 8073
7541 8405
7541 8915
7542 8228
7542 8581
7542 9162
7542 9370
7543 8931
7544 7844
7544 7867
7544 8244
7545 9123
7546 8005
7547 7669
7547 7745
7547 8166
7547 8857
7547 9157
7548 7550
7548 7563
7548 7950
7548 8038
7548 8438
7548 8680
7548 8839
7549 7673
7550 7797
7550 8502
7550 8581
7550 8656
7550 9107
7551 8490
7551 8524
7551 8708
7551 8878
7551 8879
7551 9833
7552 7692
7552 7730
7552 7904
7552 8442
7552 8658
7552 9944
7552 9998
7553 7569
7553 7597
7553 7717
7553 8138
7553 8236
7553 8312
7553 8980
7553 9170
7553 9391
7553 9521
7553 9758
7553 9934
7554 7762
7554 7796
7554 8114
7554 8698
7554 8818
7554 9200
7555 9048
7556 7587
7556 7855
7556 8255
7556 8307
7556 8431
7556 8934
7556 9677
7557 8607
7557 8829
7557 9397
7557 9666
7559 7913
7559 8428
7559 8913
7559 9089
7559 9381
7559 9863
7560 7794
7560 8613
7560 9177
7560 9692
7560 9732
7561 7712
7561 8103
7561 9924
7562 9553
7563 7986
7563 8276
7564 8274
7564 8857
7564 9065
7564 9246
7564 9932
7564 9986
7565 8567
7565 8649
7565 8760
7565 9034
7566 7723
7566 7837
7566 7932
7566 8386
7566 9766
7567 7635
7567 8619
7567 9415
7567 9459
7568 8196
7568 8966
7568 9228
7568 9621
7569 8189
7569 8469
7569 8956
7569 9584
7570 7915
7570 8132
7570 8933
7570 8941
7570 9730
7570 9813
7570 9901
7571 8022
7571 8090
7571 9117
7571 9162
7571 9646
7572 7831
7572 8195
7572 9081
7572 9253
7572 9690
7573 8153
7573 8607
7573 8976
7573 9091
7573 9541
7573 9863
7574 8715
7574 9245
7574 9445
7574 9809
7574 9970
7575 7728
7575 7965
7575 8133
7575 8443
7575 9715
7575 9733
7575 9800
7576 8447
7576 8742
7576 9354
7576 9390
7576 9561
7576 9969
7577 8002
7577 8522
7577 8933
7578 8061
7578 8285
7578 8331
7578 8345
7578 8623
7578 9153
7578 9573
7579 8256
7579 8382
7579 8458
7579 9423
7580 7977
7580 8412
7581 7642
7581 7867
7581 7961
7581 8073
7581 8305
7581 8621
7581 9092
7581 9398
7582 7715
7582 8075
7582 8747
7582 9183
7582 9686
7583 7735
7583 7939
7583 7981
7583 8835
7583 9005
7583 9938
7584 8024
7584 8151
7584 9361
7584 9394
7584 9505
7584 9507
7585 7639
7585 8455
7586 7801
7586 7886
7586 9408
7587 8008
7588 8771
7589 8085
7589 9360
7589 9395
7589 9857
7591 8780
7591 8983
7591 9179
7591 9415
7591 9550
7591 9566
7592 7775
7592 7805
7592 8103
7592 8777
7592 8929
7592 9402
7592 9783
7592 9985
7593 7624
7593 7685
7593 7795
7593 7977
7593 8187
7593 8242
7593 8736
7593 8976
7593 9533
7593 9623
7593 9694
7594 7920
7594 8626
7594 9001
7594 9065
7594 9518
7595 9822
7596 7667
7596 7987
7596 9679
7596 9754
7598 9095
7598 9164
7598 9371
7598 9847
7598 9849
7599 8291
7599 8428
7599 9477
7600 7876
7600 8107
7600 8229
7600 8455
7600 9538
7601 7935
7601 8025
7601 8222
7601 8526
7601 8913
7601 9518
7601 9723
7602 7782
7602 7845
7602 8348
7602 8638
7602 8913
7602 9184
7602 9319
7602 9530
7602 9650
7602 9674
7603 8335
7603 8408
7604 7712
7604 7760
7604 7956
7604 7999
7604 8360
7604 8711
7604 8785
7604 8881
7604 8902
7604 9007
7604 9015
7604 9039
7604 9222
7604 9332
7604 9396
7604 9982
7605 8273
7605 8333
7605 9484
7605 9901
7605 9902
7606 7819
7606 7836
7606 9872
7607 9114
7608 7685
7608 8110
7608 9791
7609 7817
7609 8233
7609 8721
7609 9905
7609 9962
7609 9968
7610 8041
7610 8251
7610 8611
7610 8676
7610 8880
7610 8905
7610 9001
7610 9264
7610 9301
7610 9778
7610 9821
7611 8223
7611 8809
7611 9093
7611 9298
7611 9987
7612 8157
7612 8297
7612 8689
7613 7661
7613 7778
7613 8143
7613 8627
7613 8778
7613 8973
7613 9399
7613 9961
7614 8103
7614 8982
7615 8059
7615 9033
7615 9339
7616 7882
7616 7932
7616 7995
7617 8291
7617 9740
7618 7768
7618 7822
7618 7876
7618 8104
7618 8136
7618 8187
7618 8628
7618 9061
7618 9301
7618 9962
7619 8993
7620 8446
7621 8277
7621 8472
7621 8886
7621 9139
7621 9201
7622 8390
7622 8630
7622 9061
7622 9073
7622 9270
7622 9895
7623 7791
7623 7824
7623 7848
7623 8617
7623 9008
7623 9336
7623 9386
7623 9640
7624 8421
7624 9755
7625 7742
7625 7889
7625 8262
7625 9017
7625 9765
7626 7805
7627 7774
7627 7784
7627 7817
7627 8055
7627 8103
7627 8198
7627 8319
7627 8322
7627 8327
7627 9038
7627 9044
7627 9164
7627 9263
7627 9272
7627 9304
7627 9339
7627 9592
7627 9874
7628 9425
7629 8603
7630 7757
7630 8856
7630 8868
7630 9542
7631 8708
7631 8860
7631 9183
7631 9910
7632 7667
7632 7676
7632 8195
7632 8957
7632 9860
7632 9899
7633 7858
7633 8027
7633 8155
7633 8356
7633 8600
7633 9008
7634 8597
7634 9518
7634 9647
7635 7715
7635 7831
7635 8228
7635 8633
7635 8702
7635 8866
7635 8873
7635 9321
7635 9688
7637 7644
7637 7660
7637 8466
7637 8880
7638 7655
7638 7751
7638 8990
7639 8123
7639 9474
7639 9841
7640 7658
7640 8166
7640 8670
7641 8972
7641 9065
7641 9519
7642 7867
7642 8279
7642 8884
7642 9450
7642 9699
7642 9869
7643 7830
7643 7860
7643 7976
7643 8126
7643 8439
7643 8565
7643 8712
7643 8782
7643 9505
7643 9781
7643 9822
7644 7659
7644 7891
7644 8205
7645 8893
7645 9076
7645 9950
7646 9079
7646 9727
7647 7927
7647 8005
7647 8075
7647 8438
7647 8890
7647 9371
7647 9620
7647 9941
7648 7659
7648 7908
7648 8112
7648 8169
7648 9379
7648 9482
7649 7828
7649 8214
7649 9976
7650 8050
7650 8355
7650 8438
7650 8593
7650 8596
7650 9221
7650 9309
7650 9364
7650 9920
7650 9965
7651 7678
7651 8071
7651 8372
7651 8585
7651 8595
7651 8606
7652 7824
7652 8126
7652 8184
7652 9194
7652 9937
7653 8397
7653 8410
7653 8416
7653 8434
7653 8944
7653 9938
7654 9084
7654 9219
7654 9260
7655 7662
7655 8300
7655 9561
7656 7817
7656 8121
7656 8273
7656 9381
7656 9538
7656 9555
7657 7794
7657 8040
7657 9995
7658 7965
7658 8490
7658 9623
7659 7891
7659 7935
7659 7946
7659 8205
7659 8473
7659 8599
7659 8796
7659 9902
7660 8044
7660 8286
7660 8650
7660 9725
7660 9998
7661 7778
7661 7907
7661 8706
7661 8718
7661 8965
7661 9213
7661 9671
7661 9680
7661 9696
7661 9902
7661 9961
7662 7669
7662 7785
7662 7898
7662 8471
7662 8563
7662 9245
7662 9407
7662 9609
7662 9692
7663 7962
7663 8063
7664 8090
7664 8537
7664 8722
7664 9147
7665 7898
7665 7904
7665 8524
7665 8555
7665 8575
7665 9729
7666 7894
7666 9414
7666 9574
7666 9861
7667 7676
7667 7687
7667 7730
7667 7888
7667 8213
7667 8305
7667 8620
7667 8759
7667 9844
7667 9966
7668 8583
7668 8832
7668 8990
7669 8518
7669 9001
7669 9267
7669 9669
7670 8538
7670 9202
7670 9514
7670 9916
7671 7829
7671 9506
7672 8032
7672 8827
7672 9396
7672 9428
7673 9343
7673 9651
7674 8272
7674 8726
7674 8786
7674 9231
7674 9647
7674 9897
7675 9304
7675 9517
7675 9909
7675 9919
7676 8153
7676 8213
7676 9129
7676 9943
7676 9966
7677 8590
7677 9008
7677 9515
7677 9592
7677 9909
7678 7840
7678 8100
7678 8116
7678 8933
7679 7681
7679 7810
7679 8207
7679 8747
7679 8925
7679 9121
7679 9161
7679 9310
7679 9597
7680 8728
7680 8849
7680 9310
7680 9598
7681 8340
7681 8792
7681 9037
7681 9899
7682 8918
7682 9095
7682 9335
7682 9969
7683 7957
7683 8296
7683 8806
7683 9156
7683 9452
7683 9652
7683 9808
7683 9947
7684 8001
7684 8851
7684 8993
7684 9187
7684 9415
7684 9765
7684 9856
7685 7745
7685 8110
7685 8419
7685 8865
7685 9062
7685 9586
7685 9609
7686 7883
7686 8021
7686 8895
7687 8315
7687 8571
7687 9356
7687 9831
7688 8124
7688 9483
7688 9496
7689 7753
7689 7879
7689 8350
7689 8788
7689 9076
7689 9489
7689 9531
7689 9533
7689 9576
7689 9717
7689 9869
7690 8417
7690 8504
7690 9210
7690 9689
7690 9906
7690 9994
7691 7732
7691 8453
7691 8574
7691 9756
7692 8144
7692 9559
7693 8204
7693 9801
7694 8102
7694 8144
7694 9110
7694 9342
7694 9533
7694 9557
7694 9617
7694 9764
7695 8121
7695 8360
7695 8681
7695 9410
7696 7710
7696 7952
7696 8144
7696 8754
7696 8780
7696 8877
7696 8990
7696 9219
7696 9738
7696 9787
7696 9832
7697 9325
7697 9336
7697 9338
7697 9428
7697 9628
7698 7882
7698 8310
7698 9296
7699 8532
7699 8923
7699 8959
7699 9016
7699 9130
7699 9888
7699 9974
7700 7908
7700 8031
7700 8202
7700 8316
7701 8016
7701 8073
7701 9630
7701 9968
7702 8401
7702 8659
7702 8778
7702 8922
7702 9985
7703 7844
7703 8648
7703 8745
7703 9100
7703 9180
7703 9490
7704 8800
7704 9444
7704 9923
7705 8468
7705 9316
7705 9432
7706 8505
7706 8639
7706 9360
7706 9572
7706 9950
7707 8170
7707 9159
7707 9869
7708 7763
7708 8326
7709 9152
7709 9196
7709 9236
7709 9302
7709 9404
7710 7928
7710 8412
7710 8643
7710 8878
7710 9231
7711 9042
7711 9506
7712 8103
7712 8266
7712 8708
7713 8882
7713 9152
7713 9258
7713 9447
7714 7723
7714 7916
7714 7944
7714 7958
7714 9043
7714 9116
7714 9678
7714 9706
7715 8075
7715 8760
7716 7736
7716 8278
7716 9399
7716 9415
7716 9571
7717 9036
7717 9170
7718 8160
7718 8553
7718 9037
7719 8216
7719 8649
7719 9061
7720 8318
7720 8861
7720 9264
7720 9974
7721 7851
7721 7980
7721 8046
7721 8127
7721 8446
7721 8639
7721 8739
7721 8880
7721 9018
7721 9745
7722 8108
7722 8266
7723 7928
7723 8195
7723 9013
7723 9191
7723 9885
7724 7902
7724 8542
7724 9168
7724 9652
7724 9809
7725 8340
7725 9257
7725 9939
7726 8032
7726 9153
7726 9441
7727 8648
7727 9058
7727 9336
7727 9354
7728 8198
7728 8694
7728 9509
7728 9732
7729 9287
7730 8652
7731 9281
7732 7774
7733 8567
7733 9080
7733 9960
7734 8413
7734 8814
7734 9593
7735 8026
7735 8891
7735 9209
7735 9289
7736 8377
7737 8712
7737 8868
7737 8943
7737 9467
7737 9622
7738 8072
7738 8646
7738 8830
7738 8982
7738 9027
7738 9263
7738 9411
7739 8393
7739 9253
7739 9404
7740 8133
7740 8413
7740 8475
7740 8821
7740 8852
7740 8872
7740 9545
7741 7812
7741 8450
7741 8558
7741 8817
7741 9145
7741 9811
7741 9824
7742 8244
7742 8554
7742 8558
7742 8911
7742 9221
7742 9472
7742 9534
7742 9908
7743 7825
7743 8441
7743 9333
7743 9426
7743 9628
7744 7811
7744 8009
7744 8355
7744 8433
7744 9350
7744 9470
7745 7923
7745 7958
7745 8304
7745 8753
7745 8856
7745 8889
7745 8906
7745 8950
7745 9345
7745 9993
7747 8581
7747 8732
7747 9365
7747 9466
7747 9509
7747 9709
7748 9412
7748 9992
7749 8581
7749 9784
7750 8224
7750 8362
7750 8397
7750 9281
7750 9284
7750 9426
7750 9553
7750 9578
7751 8059
7751 9042
7751 9744
7751 9863
7752 7937
7752 7946
7752 8212
7752 8295
7752 8580
7752 8867
7752 8893
7752 8936
7752 9538
7753 7757
7753 7942
7753 8365
7753 8500
7754 9469
7755 7956
7755 8070
7755 8279
7755 9308
7755 9804
7756 8058
7756 9162
7756 9262
7757 8243
7757 8781
7757 9135
7757 9320
7757 9510
7757 9601
7757 9828
7758 8575
7759 7806
7759 7906
7759 9087
7759 9142
7759 9269
7760 7846
7760 8054
7760 9143
7760 9232
7760 9419
7760 9681
7760 9716
7761 8272
7761 8820
7761 9817
7762 7850
7762 8195
7762 8735
7762 9757
7763 8030
7763 9563
7763 9739
7763 9854
7763 9906
7763 9957
7764 7942
7764 8088
7764 8357
7764 9310
7764 9413
7765 7774
7765 7918
7765 8089
7765 8366
7765 8447
7765 9672
7766 8527
7766 8556
7766 8742
7767 8002
7767 8696
7767 8746
7768 8082
7768 9416
7768 9487
7768 9697
7768 9750
7769 8089
7769 8540
7770 9023
7770 9170
7770 9281
7770 9774
7770 9839
7771 9074
7771 9793
7772 7963
7772 8622
7773 8164
7773 8325
7773 8901
7773 9509
7774 7915
7774 7949
7774 8441
7774 8841
7774 9403
7774 9795
7775 8227
7775 8480
7775 9445
7776 8280
7776 8988
7776 9763
7777 8849
7778 7840
7778 9210
7778 9345
7778 9961
7779 9207
7780 8875
7780 8941
7780 9376
7781 7817
7781 8947
7782 8802
7782 9162
7782 9510
7783 8200
7784 7910
7784 8030
7784 8304
7784 8372
7784 8517
7784 9187
7785 7971
7785 8471
7785 8982
7786 8769
7787 7791
7787 9072
7788 8144
7788 8778
7788 9689
7789 8049
7789 8277
7789 9158
7789 9899
7790 8383
7790 9061
7791 8386
7791 8591
7791 8748
7791 8873
7791 8938
7791 8992
7791 9354
7791 9900
7792 7913
7792 8292
7793 8222
7793 8246
7793 8528
7793 9111
7793 9331
7794 8057
7794 8484
7794 8565
7794 8681
7794 8689
7794 8725
7794 8883
7794 8914
7794 9013
7794 9328
7794 9808
7794 9848
7795 7830
7795 8716
7795 8955
7795 9175
7795 9418
7795 9444
7795 9770
7796 8149
7796 8929
7796 8999
7796 9380
7796 9514
7796 9927
7797 7897
7797 8090
7797 8192
7797 8340
7797 8745
7797 8828
7797 9050
7797 9586
7797 9667
7797 9678
7798 9048
7798 9152
7798 9522
7798 9669
7798 9902
7798 9908
7798 9936
7798 9945
7799 7811
7799 7906
7799 8425
7799 8453
7799 8552
7799 8701
7799 8865
7799 9143
7799 9230
7799 9730
7799 9819
7800 7928
7800 8328
7801 9228
7801 9408
7801 9686
7802 8064
7802 8708
7802 8741
7802 9060
7802 9109
7802 9345
7802 9496
7802 9597
7802 9634
7802 9643
7802 9824
7802 9919
7802 9962
7803 7888
7803 9024
7804 8103
7804 8144
7804 9418
7805 9746
7806 8223
7806 8896
7806 8901
7806 9078
7806 9488
7807 7895
7807 8608
7807 8752
7808 8247
7808 8580
7808 8749
7808 8763
7808 8829
7808 9569
7809 9263
7810 8269
7810 8583
7810 8607
7810 9281
7810 9383
7810 9763
7810 9995
7811 7995
7811 8820
7811 9189
7811 9226
7812 8731
7812 9345
7812 9913
7814 7950
7814 8209
7814 8814
7814 8823
7814 9302
7814 9482
7815 9770
7816 8168
7816 8345
7817 8359
7817 8416
7817 8913
7817 8947
7817 9541
7817 9613
7817 9960
7818 8169
7819 7836
7819 7847
7819 8852
7819 9627
7820 7925
7820 8192
7820 8449
7820 8548
7820 8682
7820 9071
7820 9268
7820 9750
7820 9786
7821 8756
7821 9362
7822 7955
7822 8720
7822 9118
7822 9170
7823 9126
7823 9505
7823 9921
7823 9936
7823 9998
7824 8047
7824 8316
7824 8844
7824 9483
7824 9728
7824 9958
7825 8104
7825 8214
7825 8712
7825 9427
7825 9792
7826 8558
7826 9252
7826 9508
7826 9516
7826 9984
7827 7963
7827 8720
7828 8104
7828 9538
7829 7931
7829 8174
7830 8156
7830 9646
7830 9822
7831 7874
7831 8680
7831 8850
7831 8932
7831 9005
7831 9338
7831 9531
7831 9603
7831 9611
7831 9688
7832 8467
7832 8885
7832 9197
7832 9670
7833 7939
7833 8004
7833 8098
7833 8266
7833 8576
7833 8688
7833 8772
7833 8933
7833 9007
7833 9048
7833 9216
7833 9332
7833 9422
7833 9710
7833 9712
7833 9714
7833 9934
7834 8722
7835 8034
7835 8465
7835 8651
7835 9020
7837 7998
7837 8072
7837 8074
7837 9766
7838 9015
7838 9301
7839 9608
7839 9755
7840 8032
7840 8135
7840 8480
7840 8509
7840 8659
7840 8991
7840 9564
7840 9941
7841 9232
7842 8074
7842 8449
7842 8907
7842 9425
7842 9567
7843 8108
7843 8174
7843 8907
7843 8990
7844 8136
7844 8357
7844 8462
7844 8752
7844 9034
7844 9080
7844 9236
7844 9306
7844 9707
7844 9800
7844 9974
7845 8927
7845 9253
7847 7984
7847 9076
7847 9098
7847 9760
7848 7912
7848 8029
7848 8067
7848 8444
7848 8928
7848 9008
7848 9386
7848 9413
7848 9567
7849 8929
7849 9292
7849 9439
7849 9898
7850 8191
7850 8258
7851 8534
7851 9914
7852 8453
7852 8639
7852 9283
7852 9555
7853 8207
7853 9019
7854 9304
7854 9351
7854 9485
7855 8453
7855 8801
7857 8168
7857 9949
7858 7940
7858 8230
7858 9210
7858 9401
7858 9429
7858 9446
7858 9489
7858 9923
7858 9943
7858 9989
7859 7915
7859 7979
7859 8647
7859 9338
7859 9607
7859 9623
7860 8940
7860 9440
7860 9480
7861 8137
7861 9956
7861 9974
7862 9669
7863 8926
7863 8978
7863 9005
7863 9167
7863 9797
7863 9839
7863 9879
7864 7993
7864 8331
7864 9678
7865 8848
7865 9075
7865 9549
7865 9831
7866 7960
7866 8224
7866 8410
7866 8670
7866 8729
7866 8741
7866 9558
7866 9750
7867 8344
7867 8715
7867 8946
7867 9231
7867 9572
7867 9573
7867 9755
7868 9572
7869 7905
7869 8180
7869 8235
7869 8366
7869 9724
7870 8258
7870 9175
7870 9195
7871 8145
7871 8359
7871 8876
7871 9902
7872 8489
7872 8542
7872 8611
7872 8736
7872 9509
7872 9856
7873 8169
7873 8391
7873 9316
7873 9432
7874 8065
7875 9247
7875 9574
7875 9968
7876 8285
7876 8685
7876 9538
7877 8381
7877 8517
7877 9030
7877 9210
7879 7921
7879 8418
7879 9375
7879 9782
7880 8020
7880 8625
7880 8903
7880 8931
7880 9512
7880 9561
7881 9180
7881 9281
7881 9830
7882 7954
7882 7995
7882 8718
7882 9206
7882 9254
7882 9466
7883 8892
7884 8002
7884 8167
7884 9273
7884 9340
7886 8786
7886 9466
7886 9986
7887 8340
7887 8737
7887 9232
7888 7999
7888 8246
7888 8499
7888 8707
7888 9306
7888 9371
7888 9508
7888 9614
7888 9780
7889 8262
7889 8446
7889 8567
7889 9167
7889 9335
7889 9501
7890 8541
7890 8952
7890 9189
7890 9922
7890 9996
7891 8205
7891 8395
7891 8796
7891 9712
7892 8669
7892 9013
7893 9068
7893 9285
7894 8047
7894 8394
7894 8708
7894 9050
7895 8020
7895 8211
7895 8227
7895 8336
7895 8520
7895 9099
7895 9192
7895 9204
7895 9375
7895 9501
7895 9602
7895 9706
7895 9907
7896 8033
7896 8223
7896 8294
7896 9839
7897 8114
7897 8195
7897 8891
7897 9118
7898 8103
7898 8278
7898 8527
7898 8908
7898 9225
7898 9663
7898 9708
7898 9747
7898 9893
7899 8752
7899 9052
7900 7952
7900 8649
7900 8904
7900 9877
7901 8307
7901 9151
7901 9275
7902 8176
7902 8441
7902 8639
7902 8852
7902 9269
7902 9344
7902 9581
7903 8783
7903 9643
7904 7973
7904 8217
7904 8800
7905 8031
7905 9549
7907 7984
7907 7993
7907 8018
7907 9011
7907 9623
7908 8652
7909 8682
7909 9208
7909 9232
7909 9471
7909 9818
7910 8091
7910 8178
7910 9690
7911 8534
7911 8814
7912 9008
7913 8015
7913 8214
7913 8327
7913 8428
7913 8496
7913 9089
7913 9629
7913 9751
7913 9951
7913 9998
7914 7922
7914 7969
7914 8043
7914 8169
7914 8222
7914 8302
7914 8402
7914 8719
7914 9269
7914 9521
7914 9755
7915 8275
7915 8363
7915 8372
7915 8630
7915 8781
7915 8877
7915 9561
7915 9628
7915 9652
7916 8730
7916 9517
7917 8448
7918 8242
7918 8472
7918 8514
7918 9853
7918 9861
7919 8143
7919 8300
7919 8736
7919 9993
7920 7948
7920 8531
7920 8710
7920 9670
7921 8379
7921 9375
7922 8238
7922 8307
7922 8365
7922 8970
7922 8994
7922 9128
7922 9166
7922 9321
7922 9491
7922 9594
7922 9702
7923 8623
7923 8856
7924 8982
7924 9573
7925 8314
7925 9389
7927 9853
7928 8328
7928 8333
7928 8758
7929 8062
7929 8127
7929 8669
7929 8891
7929 9014
7929 9372
7929 9978
7930 7968
7930 8270
7930 8737
7930 9033
7930 9394
7930 9483
7930 9507
7931 9033
7932 8022
7932 8094
7932 8284
7932 8608
7933 8031
7933 8691
7933 8983
7933 9643
7933 9682
7933 9995
7934 8045
7934 9155
7934 9417
7934 9521
7934 9581
7935 7977
7935 8302
7935 8526
7935 8661
7935 8911
7935 8913
7935 9032
7935 9699
7935 9723
7935 9762
7935 9787
7935 9831
7935 9843
7936 8005
7936 8387
7936 9632
7938 8138
7938 8459
7938 9931
7939 7957
7939 8807
7939 9672
7939 9827
7939 9955
7940 9053
7941 8019
7941 9658
7942 8435
7942 8440
7942 8500
7942 9482
7942 9856
7943 8699
7944 9731
7944 9737
7945 7964
7945 8019
7946 9316
7946 9678
7947 8031
7947 8162
7947 9754
7948 8775
7948 9278
7948 9467
7949 8321
7949 8807
7949 8819
7949 9284
7949 9648
7949 9917
7949 9928
7950 8209
7950 8823
7950 9273
7951 9388
7951 9394
7952 8222
7952 9838
7953 8240
7953 8490
7954 7987
7954 8394
7954 8565
7954 8867
7954 8869
7954 9482
7954 9489
7954 9857
7955 8190
7955 9674
7956 9488
7956 9985
7957 8150
7957 8346
7957 8542
7957 8698
7957 8849
7957 9288
7957 9416
7957 9489
7957 9525
7957 9564
7957 9896
7957 9897
7958 8011
7958 8174
7958 8178
7958 8357
7958 8527
7958 8609
7958 8641
7958 8710
7958 9239
7958 9674
7958 9939
7959 8318
7959 8428
7959 8442
7959 8484
7959 8730
7959 9851
7960 9317
7961 8258
7961 8912
7961 8978
7961 9040
7961 9356
7961 9387
7961 9924
7961 9939
7963 8887
7964 7969
7964 8151
7964 8225
7964 8517
7965 8163
7965 8953
7965 9065
7965 9623
7965 9737
7965 9813
7966 8798
7966 8870
7967 9727
7968 9160
7969 8043
7969 8410
7969 8834
7969 9421
7970 8462
7970 8898
7970 9115
7970 9287
7970 9302
7971 8760
7972 8420
7972 8490
7972 8964
7972 9581
7973 8318
7973 8656
7973 8960
7973 9203
7974 9454
7975 9648
7977 7978
7977 8175
7977 8317
7977 8487
7977 8827
7977 8978
7977 8981
7977 8997
7977 9540
7977 9830
7977 9875
7978 8116
7978 8612
7978 8857
7978 9449
7978 9930
7979 8047
7979 8647
7979 8890
7979 9634
7980 8024
7980 8073
7980 8192
7980 8370
7980 8446
7980 8735
7980 9091
7980 9193
7980 9861
7981 8163
7981 8909
7981 9125
7982 8931
7982 8963
7983 8156
7983 8190
7983 8289
7983 8698
7983 9141
7984 8146
7984 8487
7984 8668
7984 9759
7985 8644
7985 8898
7986 9618
7987 8770
7988 9195
7988 9874
7988 9911
7989 8333
7989 8368
7989 9186
7990 8490
7990 8545
7990 9884
7991 8943
7992 8760
7992 8818
7992 8886
7993 8012
7993 8083
7993 8418
7993 8473
7993 8693
7993 8887
7993 8981
7993 9210
7993 9269
7993 9324
7993 9896
7995 8044
7995 8682
7995 8994
7995 9947
7996 8418
7996 8510
7996 8649
7997 8873
7997 9207
7997 9769
7997 9863
7997 9995
7999 9808
8000 8230
8000 8437
8000 8731
8000 8750
8000 8964
8000 9132
8000 9890
8001 8586
8001 8619
8001 8813
8001 8844
8001 8845
8001 9590
8001 9845
8002 8292
8002 8346
8002 8982
8003 8455
8003 9484
8003 9960
8004 8163
8004 8513
8005 8818
8005 8890
8005 8970
8005 9257
8005 9395
8006 8223
8006 9188
8007 8188
8007 8988
8007 9316
8007 9502
8007 9552
8009 9311
8010 8033
8010 8656
8011 8806
8011 8943
8011 9878
8011 9898
8011 9907
8012 8079
8012 8083
8012 8887
8013 8184
8013 8606
8013 9099
8013 9359
8013 9581
8013 9585
8014 8314
8014 8578
8015 8368
8015 9100
8015 9207
8016 8144
8016 8655
8016 8834
8016 8844
8016 9601
8017 8202
8017 8234
8017 9511
8018 9068
8018 9327
8019 8236
8019 8265
8019 8337
8019 8435
8019 8515
8019 8620
8019 8625
8019 8944
8019 9370
8019 9789
8020 8055
8020 8289
8020 9525
8021 9645
8022 9646
8023 8492
8024 8212
8024 8338
8024 8441
8024 8503
8024 9191
8024 9675
8024 9793
8025 8213
8025 8459
8025 8575
8025 8674
8025 9249
8025 9658
8025 9798
8025 9867
8026 8136
8026 9447
8026 9524
8026 9578
8026 9659
8027 9856
8027 9947
8028 9241
8029 8484
8029 8732
8029 9916
8030 8783
8030 9313
8030 9581
8030 9815
8031 8203
8031 8429
8031 8528
8031 8691
8031 9071
8031 9667
8031 9754
8032 8214
8032 8399
8032 8746
8032 9280
8032 9441
8032 9591
8032 9626
8032 9690
8032 9872
8033 8087
8033 9152
8033 9258
8033 9633
8034 8372
8034 9138
8034 9290
8034 9387
8034 9556
8034 9649
8034 9779
8035 9404
8036 8102
8036 8225
8036 8297
8036 8689
8037 9307
8038 8104
8038 8549
8038 8760
8039 9137
8040 8076
8040 8589
8040 9927
8041 8251
8041 9620
8041 9646
8041 9778
8042 8172
8042 8243
8042 9070
8042 9188
8043 8844
8043 8885
8044 8644
8044 8951
8044 9259
8044 9372
8044 9462
8044 9883
8045 9219
8045 9749
8045 9964
8046 8446
8046 8473
8046 8525
8046 9111
8046 9368
8046 9444
8047 8342
8047 9444
8047 9998
8048 8236
8048 8432
8049 8164
8049 8831
8049 9294
8050 8310
8050 8505
8050 9424
8050 9435
8050 9547
8051 8496
8051 9419
8051 9539
8051 9555
8052 8399
8052 8994
8052 9339
8053 9050
8053 9502
8053 9804
8053 9885
8054 8344
8054 9524
8054 9549
8054 9716
8055 8289
8056 9217
8056 9631
8056 9674
8057 8153
8057 8493
8057 8507
8057 8550
8057 8632
8057 9221
8057 9338
8057 9353
8057 9494
8057 9768
8058 8200
8058 8208
8058 8302
8058 8484
8058 8623
8058 9282
8059 8184
8059 8346
8059 8785
8059 8898
8059 9042
8060 8906
8061 8282
8061 9113
8061 9857
8063 8137
8063 9056
8063 9209
8063 9236
8064 8180
8064 8352
8064 9060
8064 9969
8065 8606
8065 9152
8065 9871
8066 8392
8066 8421
8066 9070
8066 9770
8067 9380
8068 8217
8068 8770
8068 9383
8068 9509
8069 8176
8069 8943
8070 8311
8070 8680
8070 9552
8071 9233
8071 9386
8071 9482
8071 9524
8071 9639
8071 9781
8072 8431
8072 8432
8072 8499
8072 8559
8072 8580
8072 8625
8072 8945
8072 9574
8072 9840
8073 8082
8073 8261
8073 8371
8073 8634
8073 8806
8073 8975
8073 9731
8074 8449
8074 8585
8074 9248
8074 9443
8074 9567
8074 9883
8075 8176
8075 8271
8075 8492
8075 8710
8075 8780
8075 8915
8075 9307
8075 9361
8075 9448
8075 9465
8075 9552
8075 9881
8076 8419
8076 8574
8076 8639
8076 9249
8076 9600
8076 9604
8076 9809
8077 8169
8077 8218
8077 8571
8077 8976
8077 9656
8078 8901
8078 9853
8079 9793
8080 8276
8080 8455
8080 8926
8080 9257
8080 9528
8080 9662
8080 9997
8081 8205
8081 8617
8081 9078
8081 9731
8082 8334
8082 8467
8082 8742
8082 9157
8082 9290
8082 9741
8083 8887
8083 9289
8083 9344
8083 9531
8085 8138
8085 8337
8085 8808
8085 9227
8085 9360
8086 9420
8087 8190
8087 8763
8087 9483
8088 8257
8088 8357
8088 8814
8088 8945
8088 8976
8088 9863
8089 8195
8089 8270
8089 8274
8089 8366
8089 9151
8089 9663
8089 9680
8090 8537
8091 8615
8091 8696
8092 8610
8092 9303
8093 8242
8093 8982
8093 9477
8094 8132
8094 8928
8094 9542
8095 8852
8095 9440
8095 9810
8095 9985
8096 8201
8096 8274
8096 8634
8096 9065
8096 9437
8096 9559
8096 9694
8096 9838
8097 8156
8097 8318
8097 8320
8097 9047
8098 9017
8098 9483
8098 9875
8099 8227
8099 9275
8099 9514
8100 8148
8100 8437
8100 9242
8100 9276
8100 9869
8101 9529
8101 9647
8102 8218
8102 8471
8102 8499
8102 8599
8102 8751
8102 8822
8102 9039
8102 9110
8102 9342
8102 9617
8102 9777
8103 8185
8103 8453
8103 8919
8103 9241
8103 9289
8103 9634
8104 8351
8104 9484
8104 9955
8105 8109
8105 9091
8105 9541
8106 8785
8106 9338
8106 9782
8107 8229
8107 8881
8107 9501
8107 9651
8108 8784
8108 8907
8109 8842
8109 9092
8110 9199
8111 8754
8111 9028
8111 9030
8112 8117
8112 8462
8112 8549
8112 9820
8113 8594
8113 8963
8113 9594
8114 8698
8114 9099
8114 9489
8114 9520
8115 8125
8115 8441
8115 8443
8115 8961
8116 8612
8116 8722
8116 9014
8116 9380
8116 9449
8116 9490
8116 9648
8116 9688
8116 9930
8117 8386
8117 9801
8117 9820
8119 8805
8119 8972
8119 9609
8119 9843
8120 9130
8120 9659
8121 8138
8121 9091
8121 9333
8122 8182
8122 9195
8122 9520
8123 8881
8123 9011
8123 9153
8125 8814
8126 8158
8126 8268
8126 8327
8126 8629
8126 8862
8126 8886
8126 9959
8126 9969
8127 8285
8127 8371
8127 8432
8127 8446
8127 8512
8128 8835
8128 9126
8129 8622
8129 9533
8129 9921
8130 8528
8130 8605
8130 9669
8130 9687
8131 8399
8131 8692
8132 8189
8132 8557
8132 8941
8132 9730
8133 8264
8133 8340
8133 8648
8133 8707
8133 8841
8133 9688
8133 9731
8133 9896
8133 9918
8134 8192
8134 9958
8135 8496
8135 8581
8135 9115
8135 9709
8136 9034
8137 8173
8137 8273
8137 8355
8137 8887
8137 8943
8137 8950
8137 9659
8137 9792
8138 8459
8138 9034
8138 9231
8138 9511
8138 9866
8138 9931
8139 8167
8139 9560
8140 8768
8140 9263
8140 9384
8141 8276
8141 8455
8142 8948
8142 9286
8143 8300
8143 8588
8143 8676
8143 8736
8143 8958
8143 9117
8143 9378
8143 9681
8143 9993
8144 8461
8144 8589
8144 8613
8144 8672
8144 8722
8144 9337
8144 9559
8144 9894
8145 8489
8145 8659
8145 9607
8146 8502
8146 8507
8146 8712
8147 8215
8147 9183
8147 9307
8147 9328
8147 9332
8147 9402
8148 8618
8148 9315
8149 8209
8149 8315
8149 8565
8149 9927
8150 8467
8150 9489
8151 9215
8151 9507
8152 9107
8153 8696
8153 8767
8153 9254
8153 9390
8153 9519
8154 8287
8154 8293
8154 8814
8154 9017
8154 9379
8154 9530
8155 9371
8156 8294
8156 8388
8156 8979
8156 8981
8156 8990
8156 9297
8156 9333
8156 9416
8156 9584
8157 8442
8157 9931
8157 9938
8158 8630
8159 8805
8159 8951
8159 9194
8160 8538
8160 9218
8160 9255
8160 9420
8160 9749
8161 8258
8161 8406
8161 9040
8161 9046
8161 9180
8162 8457
8162 9949
8163 8703
8163 8730
8163 9304
8163 9541
8163 9561
8163 9587
8164 8176
8164 8520
8164 8787
8164 8831
8164 8959
8164 9294
8164 9550
8165 8630
8165 8764
8166 9457
8166 9526
8167 8715
8167 8799
8167 8800
8167 9097
8167 9203
8167 9264
8167 9459
8167 9840
8168 8545
8168 9109
8168 9623
8169 8604
8169 8788
8169 8934
8169 8965
8169 9733
8169 9771
8170 8269
8170 9677
8170 9746
8171 9704
8172 8195
8172 8342
8172 8817
8172 9081
8172 9683
8174 8312
8174 9637
8175 8966
8175 9164
8176 8231
8176 8366
8176 8457
8176 8470
8176 8892
8176 9268
8176 9462
8176 9569
8176 9589
8176 9657
8177 8287
8177 8443
8177 9579
8178 8526
8178 9044
8178 9127
8178 9377
8178 9901
8179 8215
8180 8395
8180 8784
8180 9449
8180 9672
8181 8377
8181 8772
8181 9254
8181 9874
8182 9502
8182 9674
8183 9400
8184 9032
8184 9150
8184 9185
8184 9585
8185 9100
8186 9023
8186 9456
8186 9739
8186 9778
8187 8722
8188 8248
8188 8342
8188 8938
8188 9214
8188 9480
8188 9627
8188 9861
8189 8291
8189 8469
8189 9489
8189 9584
8190 8250
8190 8504
8190 8669
8190 9391
8190 9612
8190 9850
8190 9936
8190 9999
8191 8402
8191 8459
8191 8634
8191 8733
8191 9108
8191 9259
8191 9550
8191 9758
8192 8446
8192 9681
8193 8733
8193 9061
8193 9369
8193 9973
8194 8375
8194 8528
8194 8656
8194 9449
8195 8906
8195 9115
8195 9253
8195 9300
8195 9751
8195 9881
8195 9928
8195 9932
8196 8279
8196 8601
8196 8758
8196 8833
8196 8910
8197 9992
8198 8941
8198 8998
8198 9509
8199 9128
8199 9414
8199 9861
8200 8599
8200 9269
8200 9598
8201 9282
8201 9978
8202 8279
8202 8512
8202 8665
8202 9117
8202 9483
8202 9549
8202 9710
8203 8375
8203 9009
8203 9434
8204 8330
8204 8626
8204 9210
8205 9098
8205 9419
8207 8810
8207 8854
8207 8864
8207 9545
8208 8356
8208 8380
8208 8757
8208 8759
8208 9512
8208 9607
8208 9666
8208 9903
8208 9972
8209 8865
8209 9013
8209 9554
8210 9194
8211 8832
8211 9761
8212 9334
8212 9546
8213 8606
8213 8982
8213 9037
8214 8597
8214 8993
8214 9717
8215 8522
8215 9468
8215 9668
8216 8627
8216 9737
8216 9827
8216 9978
8217 9412
8217 9880
8218 8404
8218 8496
8218 8894
8219 8435
8220 8412
8220 9167
8220 9184
8220 9357
8220 9611
8220 9956
8221 8568
8221 8766
8221 8932
8221 8956
8221 9458
8221 9689
8222 8309
8222 9504
8222 9668
8222 9839
8223 8989
8223 9188
8223 9218
8223 9375
8223 9491
8223 9655
8223 9995
8224 8542
8224 8670
8224 9555
8225 8387
8225 8780
8225 9351
8225 9917
8227 8407
8227 8586
8227 8857
8227 8918
8227 9146
8227 9247
8227 9327
8227 9330
8227 9405
8227 9418
8228 8317
8228 8486
8228 8542
8228 8939
8228 9463
8229 9282
8229 9453
8230 8548
8230 8672
8230 8756
8230 8816
8230 9080
8230 9387
8230 9512
8231 8793
8231 9560
8231 9650
8232 9581
8232 9670
8233 8551
8233 8593
8233 8746
8233 8896
8233 9769
8234 8541
8234 8673
8234 9736
8234 9919
8235 8670
8235 8982
8235 9088
8235 9307
8235 9476
8236 8417
8236 8418
8236 8769
8236 8871
8236 8949
8236 9238
8236 9303
8236 9450
8236 9835
8236 9956
8236 9997
8237 9436
8237 9626
8239 8261
8239 8692
8239 9477
8240 8563
8240 9307
8240 9842
8241 8309
8241 9500
8242 8485
8242 8514
8242 8993
8242 9005
8243 8394
8243 8403
8243 8741
8243 9047
8243 9481
8243 9603
8243 9671
8244 8726
8244 9978
8246 9010
8246 9594
8246 9663
8246 9692
8246 9991
8247 8383
8247 8453
8247 9232
8248 8703
8248 8870
8249 8356
8249 8646
8249 8810
8249 8830
8249 8982
8249 9031
8249 9255
8249 9263
8249 9378
8249 9411
8249 9568
8249 9833
8250 8351
8250 8702
8250 9097
8250 9202
8251 9778
8253 8409
8253 8745
8253 9727
8254 8496
8254 9170
8254 9885
8255 9029
8255 9390
8255 9870
8256 8718
8257 8606
8257 8647
8257 8916
8257 9462
8257 9669
8258 8406
8258 8539
8258 8644
8258 8732
8258 9040
8258 9853
8259 8453
8259 9140
8259 9331
8259 9355
8259 9896
8260 8283
8260 8358
8260 8680
8260 9279
8260 9438
8260 9443
8260 9696
8260 9826
8261 8291
8261 9477
8261 9887
8262 9432
8262 9647
8262 9749
8263 8285
8263 8437
8263 9607
8263 9676
8264 8841
8264 9918
8265 8875
8265 9036
8265 9350
8265 9357
8266 8375
8266 9620
8267 8965
8267 9128
8267 9318
8267 9977
8268 8582
8268 9203
8268 9374
8268 9769
8269 8625
8269 8899
8269 9117
8270 9874
8271 8539
8271 9478
8272 9231
8272 9647
8273 8407
8273 8669
8273 8701
8273 8827
8273 9170
8273 9216
8273 9237
8273 9536
8273 9847
8273 9890
8274 8650
8274 8671
8274 8762
8274 9437
8274 9553
8274 9682
8275 8448
8275 8868
8275 9353
8276 8409
8276 8455
8276 8505
8276 8926
8276 9249
8276 9262
8278 9407
8279 8521
8279 9614
8279 9758
8280 8338
8280 8561
8280 8579
8280 9382
8280 9763
8281 8329
8281 8718
8281 8821
8282 9113
8282 9453
8282 9480
8282 9815
8283 8518
8283 9063
8283 9154
8283 9962
8284 8968
8284 9092
8284 9616
8285 8309
8285 8330
8285 8705
8285 8716
8285 9948
8286 8350
8286 9327
8287 8480
8287 9129
8287 9152
8287 9332
8287 9596
8288 8375
8288 8378
8288 8503
8288 8518
8288 8927
8288 8988
8288 9087
8288 9308
8288 9841
8288 9972
8289 8935
8289 9141
8289 9365
8289 9449
8289 9693
8289 9734
8289 9914
8290 9038
8290 9042
8290 9136
8291 8538
8291 8816
8291 9183
8291 9471
8291 9477
8291 9712
8292 9885
8292 9985
8293 8698
8293 9810
8293 9869
8293 9969
8294 9270
8294 9678
8294 9773
8295 8777
8295 8990
8296 8769
8297 8305
8297 9092
8297 9903
8298 8722
8298 9433
8298 9955
8299 8767
8299 9018
8299 9981
8300 8477
8300 8615
8300 8736
8300 9870
8300 9993
8301 8650
8301 8778
8301 8906
8301 9855
8302 8503
8302 8959
8302 9500
8302 9702
8302 9898
8302 9940
8303 8829
8303 8965
8303 9644
8303 9944
8304 9093
8305 8372
8305 9802
8305 9835
8306 8486
8306 8748
8306 9347
8306 9844
8307 8388
8307 8680
8307 8809
8307 9357
8307 9734
8307 9763
8307 9851
8309 8526
8309 8705
8310 9435
8310 9519
8311 8680
8311 9093
8312 8448
8312 8619
8312 8873
8312 9149
8312 9334
8312 9790
8312 9946
8313 9259
8313 9949
8314 8741
8314 9669
8314 9905
8315 8423
8315 8912
8315 9292
8316 8342
8316 9899
8317 9037
8318 8840
8318 9314
8319 8802
8319 8834
8319 9378
8319 9466
8320 8834
8320 8877
8321 8461
8321 8634
8321 8644
8321 8702
8321 9162
8322 8433
8322 9111
8322 9560
8323 8656
8323 8716
8323 9269
8323 9430
8323 9624
8324 8723
8324 9555
8325 8444
8325 8639
8325 8842
8325 9464
8325 9856
8326 8368
8326 9686
8327 8834
8327 9175
8327 9728
8327 9830
8328 8369
8328 8376
8328 8807
8328 9265
8328 9333
8328 9383
8329 9242
8329 9796
8329 9857
8330 9349
8331 8780
8332 8570
8332 8789
8332 9551
8332 9762
8334 8355
8334 8751
8334 8814
8335 9380
8335 9519
8336 9701
8337 8648
8337 8928
8337 9167
8337 9408
8337 9526
8337 9784
8338 9021
8338 9382
8338 9763
8339 8565
8339 8616
8339 9014
8339 9747
8340 8577
8340 9667
8341 9706
8343 8452
8343 9035
8343 9690
8344 8375
8344 9143
8345 8459
8345 9095
8345 9289
8345 9970
8346 8636
8346 8661
8346 8712
8346 8811
8346 9636
8346 9662
8346 9813
8346 9824
8347 9453
8348 8609
8348 9279
8348 9630
8349 9921
8350 8414
8350 9073
8351 8364
8351 9097
8351 9271
8351 9316
8352 8467
8352 8775
8352 8962
8352 9256
8352 9423
8352 9923
8353 9237
8354 9360
8355 8487
8355 8915
8355 8942
8355 8950
8355 9037
8355 9247
8355 9792
8356 9697
8357 9273
8357 9863
8359 8876
8359 9070
8359 9255
8360 8951
8361 8421
8361 8712
8361 9678
8362 9090
8362 9209
8362 9879
8362 9903
8363 9080
8363 9141
8363 9906
8364 8656
8364 9506
8365 8417
8365 8912
8365 9005
8365 9797
8365 9879
8365 9918
8367 8681
8367 9517
8368 8515
8368 8855
8368 8931
8368 9331
8368 9527
8368 9544
8368 9589
8368 9686
8369 9149
8370 8881
8370 9424
8371 8446
8371 8449
8372 9238
8372 9340
8372 9419
8372 9429
8372 9654
8372 9802
8373 8412
8373 9025
8374 9048
8374 9883
8375 8379
8375 8717
8375 9102
8375 9299
8375 9532
8375 9589
8376 9476
8376 9886
8377 9373
8378 8418
8378 8467
8378 8510
8378 9821
8379 8553
8379 8574
8379 8920
8380 9165
8380 9557
8380 9929
8382 8818
8382 9204
8383 8629
8383 8683
8383 9256
8383 9406
8383 9841
8383 9919
8384 9615
8385 8840
8385 9389
8386 8969
8386 9037
8388 8959
8388 8996
8388 9645
8388 9691
8389 8653
8391 8586
8391 9400
8391 9946
8392 8630
8392 8651
8392 9301
8392 9327
8392 9356
8392 9955
8393 8836
8393 9042
8395 8488
8395 8520
8395 9672
8395 9793
8396 9346
8396 9692
8397 8740
8398 9821
8399 9482
8400 8428
8400 8648
8400 9932
8400 9953
8401 9098
8401 9152
8401 9690
8402 8452
8402 9092
8402 9145
8402 9415
8402 9679
8403 9012
8403 9256
8403 9603
8403 9663
8404 9398
8404 9654
8405 8769
8405 8915
8405 9919
8406 8540
8406 8637
8406 9040
8406 9180
8406 9215
8406 9244
8406 9461
8406 9504
8406 9519
8407 8552
8407 9330
8407 9418
8408 8852
8408 8941
8408 9649
8409 9669
8410 8543
8410 8670
8410 8709
8410 8741
8410 9041
8410 9750
8411 8549
8411 9568
8412 8755
8412 8931
8412 9109
8412 9515
8412 9604
8412 9906
8412 9927
8413 8821
8413 8852
8414 9073
8414 9407
8414 9613
8415 9943
8415 9997
8416 9260
8416 9467
8417 8582
8417 8684
8417 9062
8417 9145
8417 9210
8417 9279
8417 9455
8417 9624
8417 9958
8418 8510
8418 9684
8418 9792
8418 9821
8419 9132
8419 9185
8419 9368
8419 9913
8420 8609
8420 9902
8421 9658
8421 9721
8421 9774
8422 8652
8422 8769
8422 9234
8422 9903
8422 9992
8423 8878
8424 9131
8425 8791
8425 8885
8425 8974
8425 9763
8426 8453
8426 9433
8426 9826
8426 9968
8427 8548
8427 9647
8427 9940
8428 8497
8428 9089
8428 9171
8428 9266
8428 9366
8428 9499
8428 9751
8429 9603
8430 8834
8430 9170
8431 8583
8431 9530
8432 8651
8432 9380
8432 9443
8434 8477
8434 8516
8434 8582
8434 8773
8434 9318
8434 9426
8434 9468
8434 9860
8434 9988
8435 8437
8435 8616
8435 8620
8435 8713
8435 8812
8435 8887
8435 8941
8435 9733
8436 8672
8436 9173
8436 9449
8437 9555
8437 9742
8438 8621
8438 9341
8439 8778
8439 9070
8439 9285
8440 9147
8440 9393
8440 9861
8441 8817
8441 9333
8441 9481
8441 9628
8441 9662
8441 9710
8441 9872
8441 9958
8442 8618
8442 8859
8442 8953
8442 9019
8442 9228
8442 9575
8442 9880
8442 9954
8442 9995
8443 8898
8444 8746
8444 8767
8445 8483
8445 8648
8445 8897
8445 9387
8445 9602
8446 8473
8446 8778
8446 9072
8446 9385
8446 9738
8446 9962
8447 9567
8447 9900
8448 9655
8448 9895
8449 8450
8449 8585
8449 9581
8450 8817
8450 9601
8450 9811
8450 9824
8451 9008
8451 9698
8452 8807
8452 9035
8452 9690
8453 9467
8453 9663
8454 9028
8454 9232
8454 9586
8454 9782
8455 8483
8455 8926
8455 9098
8456 8489
8456 9199
8456 9232
8456 9285
8457 8718
8457 9952
8459 8977
8459 9384
8459 9931
8460 8565
8460 8668
8460 8850
8460 8958
8460 9581
8461 8702
8461 8826
8461 8936
8461 9014
8461 9124
8461 9304
8461 9382
8461 9441
8461 9810
8462 9260
8462 9287
8462 9923
8463 9269
8463 9644
8464 8543
8464 8882
8464 9305
8465 8543
8465 8598
8465 8625
8465 8754
8465 8756
8465 9084
8465 9231
8465 9253
8465 9274
8465 9431
8465 9564
8466 8851
8466 8998
8466 9154
8466 9434
8466 9581
8467 8500
8467 8758
8467 8775
8467 8897
8467 8962
8467 9235
8467 9262
8467 9644
8468 9732
8469 9187
8469 9271
8469 9680
8470 9547
8471 9115
8472 8740
8472 8837
8472 8852
8472 9458
8472 9593
8472 9739
8472 9971
8472 9985
8474 8677
8474 9782
8475 8991
8476 9860
8478 9656
8479 9580
8479 9739
8480 8492
8480 9223
8480 9616
8480 9899
8480 9973
8481 9242
8481 9499
8481 9715
8482 9052
8482 9952
8483 9256
8483 9483
8483 9586
8483 9882
8483 9995
8484 8623
8484 8686
8484 8866
8484 9282
8484 9608
8484 9880
8486 8742
8486 8939
8486 9247
8486 9612
8487 8695
8487 9288
8487 9656
8488 9524
8488 9672
8489 8907
8489 8960
8489 9042
8489 9253
8489 9882
8490 8609
8490 8887
8490 9474
8490 9678
8491 9028
8491 9061
8491 9331
8492 9309
8493 8913
8493 9088
8493 9153
8493 9184
8493 9690
8494 8747
8494 8892
8494 9263
8494 9549
8494 9965
8496 8641
8496 8892
8496 8972
8496 9156
8496 9637
8496 9963
8497 9152
8498 8514
8498 9280
8498 9298
8498 9890
8498 9987
8499 8625
8500 9277
8500 9821
8500 9916
8501 9311
8505 9423
8506 8634
8508 8720
8508 9220
8508 9276
8510 8542
8510 9750
8511 9236
8511 9755
8512 9117
8512 9369
8513 9598
8514 8554
8514 9433
8516 9151
8516 9414
8517 8653
8517 9281
8517 9397
8519 8612
8519 8633
8519 9543
8519 9552
8519 9757
8520 9294
8521 8617
8521 8991
8521 9211
8523 8764
8523 8795
8523 9715
8525 8592
8525 8894
8525 9424
8526 8913
8526 9706
8526 9723
8526 9787
8526 9946
8527 8556
8527 8593
8527 8985
8527 9076
8528 8936
8528 9331
8529 8832
8529 9285
8531 8811
8531 8956
8531 9338
8532 9016
8532 9168
8532 9974
8533 8722
8533 8996
8533 9179
8533 9208
8534 9357
8534 9501
8535 8565
8535 9059
8535 9441
8535 9912
8536 8910
8536 8925
8536 8982
8536 9163
8537 9922
8538 8868
8538 9056
8538 9553
8538 9981
8539 9301
8539 9628
8540 9145
8540 9201
8540 9679
8541 8673
8541 8866
8541 8867
8541 9211
8541 9752
8541 9777
8541 9830
8541 9832
8541 9919
8542 8986
8542 9345
8542 9775
8543 9874
8544 8971
8544 9010
8544 9779
8545 8778
8546 8624
8546 9225
8547 9360
8547 9588
8547 9667
8548 9173
8549 8723
8549 9241
8550 9353
8550 9721
8551 8662
8551 9561
8551 9775
8552 9065
8553 8824
8553 8956
8553 9156
8553 9592
8553 9908
8553 9943
8554 9185
8555 9317
8555 9819
8556 8593
8557 9252
8557 9496
8557 9923
8558 8569
8558 8693
8558 8895
8558 8985
8558 9208
8558 9252
8558 9523
8558 9984
8559 9635
8559 9901
8560 9307
8561 8881
8561 9013
8562 8985
8563 8760
8563 8869
8563 8881
8563 9307
8563 9416
8564 8734
8564 8913
8564 9121
8564 9144
8565 8681
8565 8699
8565 8746
8565 9013
8565 9092
8565 9153
8565 9386
8565 9926
8567 9880
8568 9458
8569 8944
8569 9187
8569 9538
8569 9569
8570 9090
8570 9158
8570 9487
8570 9690
8570 9849
8571 9603
8571 9633
8572 8577
8572 9584
8574 8846
8574 8961
8574 9002
8574 9322
8574 9384
8574 9601
8574 9768
8575 9256
8575 9903
8576 8704
8576 8933
8576 9257
8576 9332
8576 9422
8577 9734
8577 9774
8578 9768
8579 9763
8580 8871
8580 9104
8580 9389
8580 9703
8580 9743
8580 9796
8580 9803
8581 8698
8581 8784
8581 8846
8581 8861
8581 9709
8582 8686
8582 9160
8583 9840
8584 9179
8584 9436
8584 9623
8584 9627
8584 9648
8585 8951
8585 9430
8586 9400
8587 9017
8588 8627
8588 8861
8588 9959
8589 8666
8589 9243
8589 9319
8591 9663
8592 8616
8592 8760
8592 9424
8592 9627
8593 9836
8594 8768
8594 9005
8595 8606
8596 9083
8596 9410
8596 9692
8596 9879
8597 9152
8597 9375
8598 9656
8599 9426
8599 9814
8600 8663
8600 9445
8600 9702
8600 9789
8601 9392
8602 8954
8602 9339
8602 9509
8603 9121
8603 9521
8604 8778
8604 9298
8604 9499
8604 9715
8606 8701
8606 8820
8606 9128
8606 9214
8606 9495
8607 8829
8607 9403
8608 9631
8609 8907
8609 9103
8609 9193
8609 9823
8609 9855
8609 9858
8611 8787
8611 8887
8612 8926
8612 9449
8613 9210
8613 9293
8614 8902
8614 9442
8615 8656
8615 8690
8615 8696
8615 9444
8616 9477
8616 9747
8617 8703
8617 9211
8617 9475
8617 9504
8619 8949
8619 9415
8619 9772
8619 9890
8620 9318
8620 9689
8621 9267
8623 8847
8624 9516
8625 9530
8625 9552
8625 9733
8625 9996
8626 9043
8627 8982
8630 8669
8630 8773
8630 8808
8630 8839
8630 9376
8630 9461
8630 9535
8630 9842
8631 8787
8631 9320
8631 9991
8632 9072
8632 9179
8632 9540
8632 9993
8633 9250
8633 9893
8634 9064
8634 9536
8634 9808
8635 8736
8636 8695
8636 8809
8636 8916
8636 9048
8636 9135
8636 9248
8636 9714
8637 9101
8637 9467
8638 9450
8638 9784
8639 9424
8639 9480
8639 9674
8639 9879
8640 8840
8641 8710
8641 8926
8642 8716
8642 9303
8642 9430
8643 8896
8643 9180
8644 8863
8644 8986
8644 9372
8644 9601
8645 9492
8645 9884
8645 9908
8646 8830
8646 8905
8646 8982
8646 9411
8646 9449
8646 9488
8646 9755
8647 9634
8648 8724
8648 9111
8648 9552
8648 9661
8648 9953
8649 8719
8649 8787
8649 9064
8649 9092
8649 9473
8649 9794
8650 8981
8650 9485
8650 9554
8650 9651
8650 9678
8650 9712
8650 9745
8651 9178
8651 9618
8652 8941
8652 9792
8653 8736
8653 8950
8653 9051
8653 9306
8653 9332
8654 8675
8654 9082
8655 8778
8656 8964
8656 8984
8656 9138
8657 8770
8657 9791
8658 9513
8659 8687
8659 8969
8659 9426
8659 9568
8660 8673
8660 9620
8661 9024
8662 9127
8662 9426
8662 9452
8662 9561
8662 9912
8663 8710
8663 9445
8663 9702
8664 9084
8664 9183
8664 9210
8665 9832
8666 9846
8666 9850
8666 9946
8667 9208
8668 8850
8668 9317
8669 8891
8669 9058
8669 9105
8669 9903
8670 8709
8670 8716
8670 8741
8670 8882
8670 8887
8670 9139
8670 9157
8670 9411
8670 9558
8670 9727
8670 9750
8670 9906
8671 9050
8671 9368
8671 9502
8671 9804
8671 9885
8671 9908
8672 9695
8672 9945
8673 9919
8674 9088
8674 9288
8674 9812
8674 9857
8675 9082
8676 8845
8676 9303
8676 9664
8677 8945
8678 8829
8678 9000
8678 9022
8679 9001
8680 8932
8681 9013
8681 9541
8681 9596
8682 8924
8682 8961
8682 9241
8682 9454
8682 9607
8683 9162
8683 9443
8683 9894
8684 9210
8685 9094
8685 9434
8685 9885
8686 9426
8687 9464
8688 8933
8688 9422
8688 9712
8689 8812
8689 8943
8689 9945
8689 9993
8690 9132
8690 9355
8690 9819
8690 9895
8690 9896
8693 9731
8694 9663
8695 8735
8695 8763
8695 8824
8695 8846
8695 9221
8695 9515
8695 9748
8695 9909
8696 8707
8696 8877
8696 8893
8696 9863
8697 9346
8697 9971
8699 9038
8700 9331
8701 8865
8701 9414
8702 9250
8702 9453
8703 8862
8703 9377
8703 9434
8703 9895
8704 8778
8705 8908
8706 8824
8708 9060
8709 8741
8709 8794
8709 9520
8709 9750
8710 8763
8710 9239
8711 8765
8711 9277
8712 8868
8712 9037
8712 9622
8712 9888
8713 9902
8715 9592
8715 9720
8715 9800
8715 9970
8716 9173
8718 8878
8718 8904
8718 9280
8718 9474
8718 9536
8718 9743
8718 9842
8719 9820
8720 8777
8720 9039
8720 9517
8720 9535
8720 9846
8720 9980
8721 8820
8721 9514
8721 9905
8722 8811
8722 8933
8722 9023
8722 9071
8722 9179
8722 9208
8722 9278
8722 9337
8723 8798
8723 9379
8725 9727
8726 8810
8726 8819
8726 8931
8726 9276
8726 9978
8727 8832
8727 9185
8727 9670
8727 9767
8728 8849
8728 9610
8728 9615
8729 8894
8729 8994
8729 9385
8729 9667
8729 9815
8730 9919
8731 8792
8732 8925
8732 9256
8732 9604
8732 9658
8733 9242
8733 9799
8734 9092
8734 9671
8735 8905
8735 9162
8735 9654
8735 9728
8737 8961
8737 9797
8738 9378
8738 9417
8739 8990
8739 9319
8740 8923
8740 9117
8742 9021
8742 9969
8743 8749
8743 9480
8744 8916
8744 9051
8744 9483
8745 9829
8746 8766
8746 9342
8746 9393
8746 9891
8747 9351
8747 9664
8748 9775
8748 9856
8749 8996
8750 8964
8750 9132
8750 9222
8750 9697
8751 9307
8751 9455
8751 9635
8752 9052
8752 9963
8753 8897
8754 8848
8756 9405
8756 9490
8756 9512
8756 9612
8757 9139
8757 9424
8758 8910
8758 9217
8758 9252
8759 8793
8759 9972
8760 9107
8760 9256
8760 9660
8760 9878
8760 9901
8760 9941
8761 9065
8761 9613
8762 8777
8762 8943
8763 9193
8763 9208
8763 9818
8763 9906
8764 8795
8764 8936
8765 8825
8765 9025
8765 9277
8767 8928
8768 9017
8768 9968
8769 8901
8769 8915
8769 9710
8770 8819
8770 8881
8771 9007
8771 9111
8773 8776
8773 9201
8773 9943
8774 9153
8774 9932
8775 9008
8775 9875
8776 9292
8776 9532
8776 9879
8777 9682
8778 9493
8778 9937
8778 9974
8779 9967
8780 9127
8780 9169
8780 9732
8781 8831
8782 9379
8783 9104
8784 9406
8784 9626
8784 9879
8785 9306
8785 9985
8786 8943
8786 9126
8786 9231
8786 9647
8787 8994
8787 9152
8788 9289
8788 9444
8789 9762
8789 9857
8790 9040
8792 9360
8792 9669
8793 9560
8793 9790
8794 9111
8794 9215
8794 9988
8797 8798
8797 9002
8797 9380
8798 9157
8798 9621
8799 9396
8800 8937
8800 9107
8800 9326
8800 9353
8800 9402
8800 9425
8800 9583
8800 9678
8800 9923
8800 9977
8802 9110
8803 9025
8803 9153
8803 9173
8803 9771
8803 9939
8804 8881
8804 8943
8804 9267
8806 9045
8806 9105
8806 9302
8806 9400
8806 9718
8806 9763
8807 9297
8807 9478
8808 9328
8808 9411
8808 9580
8808 9722
8809 9248
8809 9908
8810 9703
8810 9705
8810 9920
8812 8866
8812 9216
8812 9733
8813 9845
8814 8948
8814 8953
8814 8957
8814 9369
8814 9718
8814 9778
8815 8875
8815 8978
8815 9839
8816 9207
8817 9409
8817 9630
8817 9824
8818 8835
8818 8939
8818 9330
8818 9637
8818 9703
8818 9808
8819 8878
8819 8935
8819 9307
8819 9524
8819 9534
8819 9648
8820 8916
8820 9540
8820 9885
8821 8852
8821 8861
8821 9829
8822 9914
8823 9007
8823 9628
8824 9051
8825 9234
8825 9537
8828 9026
8828 9058
8829 8875
8829 8898
8829 9403
8830 8982
8830 9263
8830 9411
8830 9466
8832 8884
8832 8946
8832 9278
8832 9401
8832 9735
8832 9904
8833 9173
8833 9791
8834 9383
8834 9517
8834 9594
8834 9719
8834 9816
8834 9894
8835 8986
8835 9330
8835 9877
8835 9950
8836 9780
8837 8902
8837 9485
8838 9017
8838 9189
8838 9421
8838 9863
8839 9303
8839 9327
8839 9372
8839 9476
8839 9577
8839 9665
8839 9739
8839 9924
8840 9153
8840 9421
8840 9589
8841 8842
8841 9335
8842 9093
8843 8912
8843 9054
8843 9058
8844 8988
8844 9590
8844 9936
8845 8892
8845 9511
8845 9575
8845 9923
8846 9190
8846 9538
8846 9923
8847 9789
8847 9842
8848 9853
8849 8926
8849 9132
8849 9161
8849 9615
8849 9678
8849 9753
8849 9865
8849 9908
8850 9432
8851 9338
8853 9576
8853 9621
8853 9827
8855 9313
8856 9083
8856 9871
8857 8895
8857 9335
8858 8945
8858 9160
8859 9028
8859 9030
8859 9654
8861 9195
8861 9418
8862 9377
8862 9903
8863 9666
8864 8958
8864 9001
8864 9246
8864 9678
8864 9826
8865 9485
8866 9163
8866 9858
8867 9923
8868 9094
8868 9622
8868 9945
8869 9281
8869 9651
8870 9341
8870 9555
8871 8952
8871 9367
8873 8890
8873 9360
8873 9738
8874 9295
8874 9605
8875 9624
8876 9853
8877 9383
8877 9579
8878 9126
8878 9172
8878 9744
8878 9857
8879 8906
8879 9217
8880 8932
8881 8959
8881 9069
8881 9398
8881 9815
8881 9943
8882 9090
8882 9206
8882 9458
8882 9641
8882 9826
8883 9960
8884 8998
8885 9015
8885 9302
8885 9581
8885 9609
8885 9983
8886 8975
8886 9139
8886 9173
8887 9010
8887 9914
8888 9018
8889 9093
8889 9150
8890 8939
8890 9093
8890 9094
8890 9612
8890 9941
8891 9375
8891 9737
8891 9747
8891 9851
8891 9945
8892 9268
8892 9446
8892 9484
8892 9632
8892 9657
8892 9917
8892 9982
8894 9226
8894 9995
8895 9523
8895 9873
8895 9980
8895 9984
8896 9078
8896 9672
8897 9006
8897 9360
8897 9387
8897 9541
8897 9602
8897 9680
8897 9741
8897 9943
8898 9204
8898 9905
8898 9998
8899 9677
8899 9746
8899 9808
8900 9966
8901 8995
8901 9727
8901 9738
8901 9757
8901 9921
8902 8914
8902 9442
8903 9128
8903 9383
8903 9455
8903 9694
8904 9846
8906 8927
8906 9097
8906 9138
8906 9230
8906 9502
8907 9910
8907 9968
8909 9444
8911 8973
8912 9428
8913 9723
8913 9787
8913 9803
8915 9094
8916 9081
8916 9132
8916 9462
8916 9511
8917 9426
8917 9710
8918 9095
8918 9335
8920 9856
8922 9176
8922 9189
8922 9825
8923 9117
8924 9328
8925 9516
8925 9902
8926 9064
8926 9654
8926 9881
8927 8988
8927 9308
8928 9610
8928 9611
8928 9716
8929 9376
8930 8990
8930 9117
8930 9209
8930 9277
8930 9338
8930 9653
8930 9752
8931 9037
8931 9405
8931 9599
8933 9206
8933 9422
8933 9648
8933 9712
8933 9993
8935 9141
8935 9365
8935 9613
8935 9916
8936 9117
8936 9248
8936 9534
8936 9885
8937 9331
8938 9214
8939 9297
8939 9956
8940 9266
8940 9481
8941 9183
8941 9255
8941 9377
8941 9406
8941 9450
8941 9730
8942 9822
8943 9195
8943 9742
8944 9098
8944 9566
8945 9160
8946 9555
8946 9678
8947 9613
8949 9480
8949 9506
8950 8952
8950 9154
8950 9347
8950 9808
8951 9294
8951 9538
8951 9820
8953 9623
8954 9520
8955 9162
8955 9379
8955 9519
8955 9823
8956 9106
8956 9159
8956 9402
8957 9604
8958 9015
8958 9100
8958 9578
8958 9995
8959 9098
8959 9184
8960 9607
8960 9792
8962 9644
8964 8997
8964 9132
8964 9307
8964 9371
8964 9498
8965 9132
8965 9300
8965 9977
8968 9231
8969 9320
8969 9711
8969 9891
8970 9631
8971 9779
8972 9522
8972 9552
8973 9601
8973 9688
8975 9139
8975 9549
8976 9022
8976 9091
8976 9541
8976 9647
8976 9663
8976 9805
8976 9828
8976 9989
8977 9071
8977 9479
8977 9543
8978 9509
8980 8989
8980 9267
8980 9543
8980 9756
8982 9263
8982 9296
8982 9411
8982 9594
8982 9669
8983 9035
8983 9541
8983 9579
8984 9125
8984 9551
8984 9752
8985 9488
8985 9949
8987 9942
8988 9087
8988 9308
8989 9122
8990 9624
8990 9785
8991 9152
8992 9128
8993 9156
8993 9187
8993 9765
8993 9786
8993 9835
8994 9092
8994 9537
8994 9866
8994 9969
8996 9034
8996 9140
8997 9128
8997 9303
8997 9982
8998 9037
8999 9927
9000 9022
9000 9672
9000 9968
9001 9510
9002 9262
9002 9623
9002 9906
9003 9859
9003 9920
9005 9038
9005 9122
9005 9286
9005 9562
9005 9797
9005 9879
9006 9809
9007 9509
9008 9386
9008 9675
9008 9695
9009 9766
9011 9352
9011 9542
9011 9820
9011 9941
9011 9949
9011 9994
9012 9813
9012 9892
9013 9550
9013 9565
9013 9904
9014 9120
9014 9747
9015 9656
9015 9956
9016 9130
9016 9974
9017 9035
9017 9091
9017 9257
9017 9322
9017 9450
9017 9763
9017 9833
9017 9875
9019 9262
9019 9486
9019 9689
9019 9995
9021 9763
9022 9682
9023 9505
9023 9774
9024 9040
9024 9265
9024 9472
9024 9534
9024 9662
9024 9755
9025 9555
9025 9614
9027 9719
9028 9030
9029 9216
9030 9487
9031 9756
9032 9231
9032 9647
9033 9730
9034 9481
9034 9800
9035 9690
9035 9772
9036 9762
9037 9507
9037 9547
9037 9899
9038 9587
9040 9946
9042 9196
9042 9584
9042 9674
9044 9696
9045 9194
9047 9623
9047 9890
9048 9824
9049 9146
9049 9189
9049 9232
9050 9332
9050 9502
9050 9804
9050 9885
9051 9135
9051 9936
9052 9160
9052 9475
9052 9714
9052 9963
9053 9092
9053 9497
9053 9502
9053 9876
9055 9201
9056 9469
9056 9981
9057 9262
9057 9552
9058 9731
9058 9939
9058 9988
9060 9227
9060 9745
9061 9464
9061 9577
9061 9582
9063 9234
9063 9521
9064 9378
9065 9114
9065 9360
9066 9132
9066 9357
9067 9210
9067 9351
9067 9437
9068 9116
9069 9117
9070 9371
9070 9502
9070 9926
9071 9144
9072 9806
9073 9500
9073 9740
9076 9667
9078 9141
9078 9481
9078 9795
9079 9378
9080 9552
9080 9670
9084 9219
9086 9111
9086 9305
9087 9160
9087 9308
9087 9996
9088 9146
9088 9221
9088 9288
9088 9770
9088 9812
9088 9857
9088 9916
9090 9117
9090 9826
9091 9541
9091 9884
9092 9362
9092 9374
9092 9671
9092 9778
9093 9379
9093 9447
9093 9511
9093 9559
9094 9418
9094 9916
9096 9807
9098 9783
9099 9706
9099 9747
9099 9821
9099 9920
9099 9970
9100 9368
9101 9864
9101 9939
9102 9589
9103 9684
9103 9858
9104 9796
9105 9336
9105 9354
9106 9190
9106 9247
9110 9342
9111 9640
9111 9672
9111 9872
9111 9974
9112 9677
9112 9935
9113 9480
9115 9483
9116 9638
9116 9668
9116 9810
9116 9856
9117 9803
9118 9579
9119 9909
9120 9298
9120 9681
9120 9765
9120 9918
9122 9182
9123 9561
9123 9982
9124 9300
9124 9440
9124 9838
9126 9236
9126 9834
9127 9132
9127 9393
9127 9476
9128 9303
9128 9440
9128 9717
9128 9982
9130 9416
9130 9888
9130 9974
9131 9921
9134 9470
9134 9750
9134 9962
9134 9977
9135 9771
9135 9890
9136 9345
9138 9511
9139 9672
9142 9218
9142 9494
9142 9529
9143 9541
9144 9363
9145 9913
9147 9277
9147 9324
9147 9861
9148 9316
9149 9961
9149 9984
9150 9327
9150 9700
9151 9548
9152 9258
9152 9437
9152 9438
9152 9467
9153 9899
9153 9995
9154 9338
9154 9632
9155 9878
9157 9621
9158 9479
9158 9692
9158 9946
9158 9976
9159 9432
9159 9755
9160 9312
9160 9369
9160 9482
9160 9500
9161 9917
9162 9480
9162 9502
9164 9371
9164 9849
9167 9611
9167 9851
9167 9957
9168 9232
9168 9371
9168 9542
9169 9412
9170 9651
9170 9847
9171 9241
9171 9478
9172 9838
9172 9856
9172 9917
9173 9779
9174 9724
9175 9629
9178 9274
9179 9187
9179 9208
9179 9249
9179 9437
9180 9213
9180 9271
9180 9830
9180 9884
9181 9607
9181 9717
9181 9856
9183 9873
9185 9192
9185 9281
9185 9368
9186 9424
9186 9854
9187 9585
9187 9660
9187 9765
9187 9835
9188 9399
9190 9929
9190 9978
9191 9715
9191 9853
9192 9786
9193 9970
9195 9236
9195 9656
9196 9625
9199 9285
9200 9985
9202 9415
9202 9514
9203 9593
9206 9424
9208 9847
9209 9267
9209 9996
9210 9445
9211 9543
9211 9926
9212 9277
9213 9743
9213 9763
9213 9961
9214 9544
9215 9417
9216 9870
9217 9686
9218 9716
9218 9740
9218 9843
9218 9945
9220 9276
9220 9496
9220 9702
9221 9353
9222 9834
9222 9985
9225 9890
9226 9426
9226 9593
9226 9999
9228 9736
9229 9310
9229 9854
9230 9273
9230 9414
9231 9647
9232 9298
9232 9561
9232 9572
9232 9587
9232 9827
9232 9962
9233 9351
9233 9504
9233 9576
9233 9725
9236 9341
9236 9562
9236 9755
9236 9788
9238 9783
9238 9994
9238 9997
9240 9513
9241 9636
9242 9499
9242 9715
9242 9930
9243 9514
9243 9694
9243 9824
9244 9885
9244 9890
9245 9338
9247 9382
9247 9453
9247 9574
9247 9642
9248 9561
9248 9997
9249 9484
9249 9589
9251 9342
9251 9582
9251 9925
9252 9523
9252 9980
9252 9984
9253 9755
9254 9957
9255 9384
9256 9792
9257 9397
9257 9939
9257 9949
9258 9888
9259 9265
9259 9544
9259 9618
9259 9635
9259 9812
9259 9895
9259 9902
9262 9386
9263 9411
9263 9649
9263 9949
9264 9272
9264 9276
9265 9571
9266 9804
9267 9345
9268 9657
9269 9325
9269 9762
9269 9954
9271 9680
9273 9942
9274 9873
9275 9610
9276 9774
9277 9807
9278 9361
9278 9476
9279 9823
9280 9281
9280 9298
9280 9890
9281 9409
9281 9461
9281 9973
9287 9350
9287 9365
9287 9483
9288 9325
9288 9361
9288 9812
9288 9855
9288 9857
9289 9341
9289 9352
9289 9620
9289 9867
9290 9345
9290 9779
9290 9916
9291 9889
9292 9303
9292 9439
9292 9616
9292 9687
9296 9801
9298 9881
9298 9890
9298 9987
9298 9996
9299 9617
9300 9436
9301 9535
9302 9650
9302 9983
9303 9697
9303 9982
9304 9874
9304 9921
9305 9371
9305 9395
9307 9320
9307 9402
9307 9842
9307 9957
9309 9949
9311 9522
9313 9399
9314 9946
9315 9826
9316 9432
9317 9591
9318 9988
9319 9850
9320 9916
9323 9542
9324 9665
9325 9855
9326 9549
9326 9950
9330 9418
9330 9456
9330 9527
9331 9776
9331 9952
9331 9967
9332 9712
9333 9484
9333 9628
9334 9542
9334 9873
9336 9537
9338 9756
9339 9450
9339 9476
9339 9718
9340 9554
9340 9662
9340 9697
9341 9352
9341 9371
9342 9617
9344 9670
9345 9810
9345 9816
9346 9968
9349 9541
9351 9504
9351 9779
9351 9989
9352 9445
9353 9590
9354 9651
9355 9910
9356 9461
9356 9670
9356 9938
9357 9496
9357 9738
9359 9501
9359 9766
9359 9804
9360 9419
9360 9520
9363 9866
9364 9436
9370 9422
9371 9590
9371 9672
9371 9849
9373 9561
9377 9445
9378 9945
9379 9656
9380 9581
9380 9793
9382 9484
9382 9763
9384 9497
9388 9553
9389 9855
9390 9677
9391 9702
9393 9648
9394 9507
9397 9871
9397 9939
9398 9574
9399 9674
9400 9886
9401 9446
9402 9854
9406 9482
9407 9953
9413 9863
9415 9436
9415 9753
9415 9968
9416 9487
9416 9697
9418 9690
9419 9539
9419 9861
9420 9539
9421 9861
9421 9918
9422 9454
9423 9500
9423 9764
9423 9923
9424 9741
9426 9855
9426 9962
9428 9853
9431 9759
9433 9585
9434 9627
9434 9775
9434 9841
9435 9519
9438 9773
9438 9934
9440 9673
9441 9502
9441 9591
9443 9508
9443 9716
9443 9963
9444 9533
9444 9670
9445 9486
9445 9610
9445 9702
9445 9980
9447 9492
9447 9571
9448 9923
9449 9870
9450 9623
9450 9723
9450 9905
9450 9991
9451 9484
9451 9991
9452 9772
9452 9900
9454 9731
9455 9635
9456 9732
9457 9526
9457 9698
9457 9835
9459 9756
9460 9506
9461 9522
9462 9731
9465 9674
9465 9860
9467 9528
9469 9784
9470 9714
9470 9856
9471 9477
9472 9534
9472 9618
9472 9994
9478 9826
9480 9781
9480 9919
9483 9866
9484 9552
9484 9632
9484 9765
9484 9901
9484 9911
9485 9582
9486 9502
9486 9848
9487 9697
9489 9524
9489 9917
9489 9992
9490 9908
9491 9969
9493 9592
9493 9686
9497 9544
9497 9857
9499 9715
9499 9985
9500 9692
9502 9683
9502 9787
9502 9804
9502 9885
9503 9640
9504 9989
9505 9820
9506 9814
9507 9880
9511 9621
9511 9894
9511 9935
9515 9541
9515 9665
9515 9969
9518 9884
9520 9731
9521 9756
9522 9847
9522 9902
9522 9908
9522 9945
9523 9980
9526 9581
9527 9551
9527 9686
9531 9949
9532 9595
9532 9635
9537 9866
9538 9569
9538 9820
9538 9921
9541 9607
9541 9805
9542 9881
9542 9914
9543 9690
9543 9757
9546 9722
9546 9895
9548 9774
9549 9601
9549 9676
9549 9928
9549 9990
9552 9795
9555 9614
9557 9654
9558 9750
9561 9775
9561 9810
9561 9822
9562 9755
9563 9580
9564 9649
9567 9612
9567 9885
9571 9828
9574 9642
9574 9863
9576 9717
9582 9941
9589 9949
9590 9845
9590 9954
9592 9623
9593 9724
9594 9864
9594 9985
9595 9843
9595 9973
9597 9973
9598 9924
9600 9604
9601 9886
9603 9720
9603 9771
9604 9804
9606 9969
9607 9837
9607 9882
9608 9883
9609 9906
9612 9936
9616 9843
9616 9973
9618 9806
9618 9855
9620 9655
9621 9671
9621 9763
9623 9720
9624 9954
9625 9822
9628 9884
9629 9697
9630 9829
9630 9935
9630 9968
9632 9871
9635 9853
9636 9914
9639 9880
9639 9919
9641 9785
9646 9906
9647 9838
9649 9779
9650 9745
9650 9771
9650 9946
9653 9752
9653 9819
9654 9726
9655 9721
9655 9742
9655 9879
9656 9932
9656 9965
9662 9765
9663 9692
9663 9824
9663 9958
9664 9707
9664 9932
9665 9673
9667 9692
9667 9800
9667 9820
9668 9854
9669 9673
9670 9767
9670 9830
9672 9892
9672 9966
9673 9678
9674 9745
9676 9726
9677 9746
9678 9849
9678 9958
9678 9970
9679 9762
9683 9804
9683 9885
9686 9840
9686 9923
9689 9784
9690 9861
9692 9912
9692 9930
9696 9962
9699 9926
9700 9846
9702 9706
9703 9836
9706 9861
9707 9929
9710 9974
9713 9826
9715 9866
9716 9860
9717 9736
9721 9740
9722 9895
9723 9787
9725 9839
9725 9978
9726 9857
9728 9854
9731 9995
9737 9979
9740 9856
9740 9933
9741 9829
9745 9946
9750 9974
9755 9759
9755 9788
9755 9877
9758 9971
9772 9886
9775 9886
9776 9902
9779 9852
9781 9822
9784 9798
9786 9871
9786 9951
9791 9836
9797 9879
9797 9984
9803 9835
9804 9885
9809 9826
9811 9824
9812 9857
9816 9903
9819 9896
9820 9912
9831 9964
9832 9919
9840 9854
9841 9935
9846 9929
9848 9996
9851 9883
9853 9973
9857 9862
9857 9868
9857 9886
9858 9954
9862 9995
9863 9932
9888 9974
9890 9893
9890 9987
9898 9983
9902 9908
9902 9945
9903 9964
9906 9917
9908 9945
9911 9912
9918 9978
9923 9972
9926 9991
9942 9969
9949 9995
9980 9984
