# LFR-like benchmark
# Nodes: 5000, Edges: 38435, Communities: 491
0 677
0 1772
0 2181
0 2361
0 2486
0 2536
0 3098
0 3238
0 3377
0 3433
0 3906
0 4420
0 4541
0 4932
1 503
1 741
1 1138
1 1201
1 1222
1 1571
1 1782
1 1882
1 3081
1 3366
1 3710
1 4441
1 4538
1 4735
2 133
2 685
2 969
2 1027
2 1975
2 2085
2 2987
2 3667
2 4357
2 4377
3 125
3 467
3 1024
3 1247
3 1406
3 1774
3 2012
3 2890
3 4079
3 4122
3 4419
4 332
4 929
4 1441
4 1529
4 2204
4 2755
4 3176
4 3725
4 3765
4 4493
4 4660
4 4732
5 211
5 228
5 544
5 719
5 814
5 824
5 1083
5 1228
5 1982
5 2193
5 2326
5 2903
5 3005
5 3349
5 3591
5 3737
5 4873
6 35
6 166
6 268
6 435
6 807
6 898
6 1006
6 1837
6 1927
6 1982
6 2100
6 2170
6 2196
6 2311
6 2328
6 2523
6 2935
6 2942
6 3075
6 3402
6 3403
6 3536
6 4164
6 4496
6 4587
6 4770
6 4928
7 597
7 1261
7 1823
7 2052
7 2306
7 2979
7 3073
7 3099
7 3198
8 51
8 686
8 749
8 1249
8 1295
8 1401
8 2437
8 2751
8 2911
8 3215
8 3431
9 99
9 107
9 1364
9 2848
9 3211
9 3567
9 3925
9 4061
9 4187
9 4562
10 109
10 424
10 1075
10 1218
10 1229
10 1832
10 1935
10 2623
10 2677
10 3240
10 3578
10 4103
10 4742
11 267
11 745
11 1036
11 1301
11 2210
11 2429
11 2613
11 2727
11 3152
11 3431
11 3488
11 3711
11 4247
11 4258
12 196
12 372
12 671
12 790
12 818
12 966
12 968
12 998
12 1039
12 1141
12 1585
12 1698
12 2416
12 2757
12 3102
13 20
13 1468
13 1504
13 1788
13 2198
13 2561
13 2655
13 3036
13 3218
13 3552
13 3946
13 4736
14 75
14 212
14 428
14 766
14 767
14 1447
14 1579
14 2240
14 2734
14 3516
14 4247
14 4309
15 646
15 939
15 1579
15 2315
15 2556
15 2684
15 3137
15 3231
15 3820
15 4171
15 4204
15 4310
15 4407
15 4439
15 4694
15 4992
16 1008
16 1806
16 2398
16 2793
16 2939
16 3336
16 3455
16 3723
16 4108
16 4600
16 4755
16 4843
17 595
17 1876
17 2013
17 3055
17 3102
17 3548
17 3800
17 3882
17 4390
17 4394
17 4409
17 4998
18 182
18 412
18 635
18 762
18 826
18 854
18 1403
18 1580
18 1701
18 1708
18 2198
18 2835
18 2967
18 3208
18 3252
18 3682
18 3696
18 4057
18 4189
19 604
19 726
19 858
19 2001
19 2105
19 2166
19 2499
19 2753
19 3111
19 3340
19 3398
19 3818
20 43
20 61
20 1152
20 1247
20 1300
20 1788
20 2371
20 2561
20 2655
20 2847
20 3262
20 3946
20 3973
20 4283
20 4485
20 4696
20 4925
21 186
21 942
21 1303
21 1442
21 1451
21 1507
21 1683
21 1696
21 1774
21 1780
21 1928
21 2066
21 2315
21 2450
21 2483
21 2538
21 2953
21 2998
21 3097
21 3651
21 4329
21 4593
21 4595
22 471
22 569
22 754
22 931
22 1073
22 1140
22 1806
22 1957
22 1972
22 2682
22 2760
22 3388
22 4337
23 630
23 677
23 1330
23 1855
23 1977
23 2197
23 2246
23 2549
23 2973
23 3250
23 3877
24 246
24 277
24 577
24 830
24 942
24 1369
24 1373
24 1476
24 2076
24 2189
24 2321
24 2408
24 2502
24 2648
24 2890
24 3099
24 3101
24 3268
24 3363
24 3439
24 3466
24 3699
24 3741
24 3769
24 4198
24 4354
24 4654
24 4817
24 4957
25 45
25 210
25 221
25 315
25 441
25 485
25 515
25 2014
25 2886
25 2935
25 3055
25 3414
25 3898
25 4295
26 150
26 406
26 564
26 1798
26 1929
26 1991
26 2624
26 2888
26 3048
26 3051
26 3263
26 3324
26 3769
26 4128
26 4564
26 4604
27 79
27 420
27 992
27 1004
27 2031
27 2940
27 2979
27 3149
27 3519
27 4170
27 4385
27 4424
28 281
28 407
28 741
28 926
28 1380
28 1513
28 1616
28 1625
28 1803
28 1978
28 2608
28 2627
28 2724
28 2756
28 2811
28 3392
28 3463
28 3574
28 4710
28 4889
29 668
29 690
29 978
29 1018
29 1545
29 1662
29 1705
29 1902
29 1916
29 2092
29 2324
29 2385
29 2803
29 3397
29 3718
29 4643
30 134
30 321
30 569
30 780
30 1241
30 1311
30 1312
30 1548
30 1605
30 1870
30 2182
30 2701
30 2767
30 3205
30 3308
30 3406
30 3856
30 3916
30 4019
30 4096
30 4222
30 4587
31 302
31 386
31 428
31 911
31 1456
31 1831
31 2252
31 2447
31 2461
31 2505
31 2872
31 2921
31 2948
31 3120
31 3196
31 3230
31 3731
31 4246
31 4255
32 86
32 392
32 964
32 1591
32 1840
32 2130
32 3110
32 3235
32 4127
32 4333
32 4380
33 330
33 360
33 680
33 713
33 755
33 948
33 1187
33 1690
33 1854
33 1989
33 2165
33 2302
33 2430
33 2547
33 2566
33 2642
33 2697
33 2896
33 3175
33 3373
33 3824
33 3922
33 3961
33 4021
33 4279
33 4583
33 4640
33 4742
33 4868
33 4963
34 494
34 725
34 790
34 1445
34 1517
34 1590
34 2185
34 2369
34 3067
34 3179
34 3198
34 3437
34 3588
34 3820
34 4059
34 4355
35 280
35 858
35 1200
35 1321
35 1542
35 1660
35 2344
35 2519
35 2989
35 3726
35 4003
35 4495
36 287
36 330
36 496
36 567
36 713
36 896
36 1021
36 1292
36 1545
36 1669
36 2080
36 2262
36 2282
36 2906
36 2930
36 3285
36 3472
36 3730
36 3793
36 3861
36 3886
36 4215
36 4713
37 783
37 879
37 904
37 962
37 1409
37 1572
37 1887
37 1930
37 1975
37 2849
37 2964
37 3187
37 3430
37 3917
37 4157
37 4525
37 4686
37 4989
38 368
38 404
38 437
38 803
38 907
38 1151
38 1465
38 1593
38 1671
38 1820
38 2240
38 2338
38 2740
38 3036
38 3140
38 3180
38 3460
38 3469
38 3569
38 3576
38 3624
38 4053
39 126
39 317
39 1342
39 2250
39 2575
39 2975
39 3565
39 3616
39 3737
39 3821
39 4051
39 4346
39 4350
39 4843
39 4986
40 168
40 293
40 475
40 1243
40 1724
40 1782
40 1879
40 1957
40 2183
40 2873
40 3309
40 3504
40 3547
40 3594
40 4244
40 4721
41 328
41 574
41 680
41 830
41 1829
41 2260
41 3422
41 3557
41 3855
41 4130
41 4313
41 4887
42 182
42 507
42 841
42 1214
42 1927
42 2406
42 2464
42 2925
42 3090
42 3217
42 3225
42 3722
42 4525
43 1780
43 1835
43 2202
43 2509
43 2677
43 2953
43 3112
43 3349
43 3385
43 3544
43 4065
43 4903
44 1668
44 1685
44 1832
44 2025
44 2662
44 2852
44 3908
44 4024
44 4240
44 4797
44 4874
45 133
45 146
45 595
45 773
45 1198
45 1319
45 2021
45 2085
45 2754
45 3056
45 4251
46 209
46 340
46 621
46 710
46 2047
46 2164
46 2169
46 2275
46 2460
46 2488
46 2508
46 2541
46 2640
46 3173
46 3632
46 3913
46 3979
47 569
47 972
47 1147
47 1394
47 2588
47 2699
47 3742
47 3872
47 3967
47 4340
47 4582
47 4797
48 105
48 849
48 1104
48 2247
48 2662
48 2973
48 3096
48 3514
48 3891
48 3896
48 4030
48 4276
48 4782
49 994
49 1165
49 1439
49 1458
49 2166
49 3494
49 3581
49 3990
49 4678
49 4842
50 80
50 712
50 2459
50 2730
50 2796
50 2835
50 3244
50 4150
50 4505
50 4812
50 4876
51 557
51 752
51 878
51 1171
51 1265
51 1510
51 1967
51 2381
51 2754
51 3963
51 4786
52 65
52 215
52 562
52 899
52 1469
52 1688
52 2324
52 3409
52 3880
52 3899
53 254
53 711
53 732
53 885
53 1333
53 1589
53 1692
53 1890
53 1977
53 2004
53 2239
53 2247
53 2724
53 2856
53 2931
53 2949
53 3099
53 3219
53 3349
53 3535
53 3687
53 4085
53 4395
53 4396
53 4472
53 4613
53 4741
54 2503
54 2754
54 3197
54 3207
54 3422
54 3711
54 4701
54 4768
54 4835
55 259
55 311
55 1010
55 1025
55 1936
55 2337
55 2591
55 2772
55 2817
55 3086
55 3355
55 3536
55 3559
55 4808
56 65
56 512
56 553
56 764
56 770
56 908
56 2019
56 2175
56 2368
56 2866
56 3879
56 4441
57 196
57 279
57 532
57 1048
57 2068
57 2108
57 2173
57 2366
57 2368
57 2493
57 3126
57 3248
57 3357
57 3996
57 4251
57 4277
57 4462
57 4804
58 321
58 336
58 408
58 1629
58 1631
58 1856
58 1886
58 2816
58 2946
58 3725
58 3982
58 4029
58 4464
58 4585
58 4915
59 220
59 868
59 1014
59 1495
59 1688
59 2324
59 2897
59 3409
59 3709
59 3899
59 4868
59 4899
60 702
60 1112
60 1141
60 1522
60 1636
60 1849
60 1939
60 2052
60 2205
60 2440
60 2471
60 2503
60 2646
60 3365
60 3416
60 3465
60 3479
60 3577
60 3925
60 3972
60 4074
60 4080
60 4110
60 4474
60 4550
60 4629
60 4746
61 789
61 1138
61 2142
61 2561
61 2655
61 3086
61 3946
61 4322
61 4696
62 450
62 584
62 599
62 1292
62 1971
62 2908
62 3510
62 3589
62 3828
62 4400
62 4720
62 4838
63 389
63 973
63 1141
63 1215
63 1724
63 1795
63 1833
63 1992
63 2169
63 2482
63 3000
63 3630
63 3691
63 4051
63 4204
63 4742
63 4764
64 499
64 622
64 799
64 996
64 1169
64 1536
64 1841
64 1937
64 2385
64 2608
64 2720
64 2767
64 3074
64 3595
64 3953
64 4004
64 4064
64 4642
64 4878
65 512
65 553
65 554
65 770
65 781
65 945
65 1053
65 1650
65 2552
65 2695
65 2866
65 3121
65 3902
65 3981
65 4121
65 4719
66 731
66 994
66 1044
66 1473
66 2006
66 2409
66 2895
66 3024
66 3349
66 3561
66 4181
66 4776
66 4956
67 232
67 564
67 1394
67 1676
67 1844
67 2028
67 2649
67 2841
67 2990
67 3452
67 3588
67 4248
67 4607
67 4691
68 203
68 641
68 902
68 1312
68 1406
68 1822
68 2264
68 2378
68 2594
68 3113
68 4150
68 4487
68 4695
68 4847
69 86
69 215
69 457
69 1000
69 2764
69 4259
69 4542
69 4993
70 443
70 1509
70 1644
70 1723
70 1868
70 2941
70 3971
71 75
71 91
71 280
71 291
71 350
71 489
71 1063
71 1144
71 1299
71 1528
71 2099
71 2273
71 2356
71 2461
71 2486
71 2843
71 2912
71 2937
71 3002
71 3268
71 3324
71 3351
71 3462
71 3651
71 3764
71 3843
71 4111
71 4765
72 242
72 369
72 554
72 946
72 1061
72 1071
72 1305
72 1362
72 1407
72 1779
72 1789
72 2067
72 2221
72 2238
72 2660
72 2857
72 3313
72 3315
72 3818
72 3905
72 4529
72 4767
72 4798
72 4833
73 872
73 2502
73 2754
73 3711
73 3863
73 4098
74 1230
74 1361
74 1429
74 1462
74 2051
74 2436
74 2878
74 3153
74 3378
74 3449
74 3751
74 4113
74 4146
74 4575
75 428
75 940
75 1447
75 2055
75 2240
75 2301
75 2364
75 2903
75 2956
75 3624
75 3924
76 408
76 590
76 739
76 1520
76 1526
76 1559
76 1701
76 1856
76 2110
76 2242
76 2571
76 2797
76 2880
76 2891
76 2927
76 3797
76 3888
76 3910
76 4073
76 4111
76 4335
76 4486
76 4585
76 4622
76 4665
76 4682
76 4735
77 174
77 318
77 441
77 923
77 1377
77 1766
77 3102
77 3508
77 3601
77 4387
77 4885
77 4919
78 642
78 2086
78 2416
78 2760
78 3304
78 3355
78 4637
78 4670
78 4991
79 829
79 1423
79 1600
79 1840
79 2170
79 2212
79 2449
79 2814
79 3807
79 4554
79 4839
80 133
80 185
80 268
80 347
80 354
80 468
80 1248
80 1382
80 1841
80 2332
80 2427
80 2717
80 3370
80 3642
80 3914
80 4192
80 4402
81 226
81 260
81 780
81 1285
81 1667
81 2260
81 2938
81 2959
81 3206
81 4197
81 4251
82 723
82 922
82 938
82 1982
82 2196
82 3576
82 3597
82 3954
82 4126
82 4248
82 4497
82 4721
82 4867
82 4982
83 270
83 292
83 342
83 661
83 721
83 853
83 1061
83 1335
83 1725
83 1887
83 2220
83 2519
83 2694
83 2828
83 3231
83 3414
83 3833
83 3928
83 4074
83 4164
83 4329
83 4448
83 4481
83 4526
83 4685
83 4910
84 745
84 791
84 944
84 1354
84 1453
84 1545
84 2650
84 3542
84 3811
84 3921
84 4536
85 153
85 176
85 454
85 1513
85 1938
85 3020
85 3155
85 3456
85 4324
85 4420
85 4660
86 334
86 360
86 466
86 556
86 630
86 697
86 1041
86 1065
86 1482
86 1564
86 1596
86 2004
86 2319
86 2399
86 2578
86 2659
86 2764
86 2870
86 3264
86 3598
86 3953
86 4035
86 4259
86 4486
86 4542
86 4943
86 4974
86 4993
87 774
87 1658
87 1691
87 1818
87 1980
87 3021
87 4063
87 4241
87 4463
87 4676
88 978
88 1968
88 2481
88 2715
88 2814
88 3259
88 3637
88 3671
88 3719
88 3840
88 4382
88 4813
89 624
89 2002
89 2399
89 2799
89 3128
89 3154
89 3342
89 3620
89 3963
89 4050
90 774
90 1194
90 1818
90 2618
90 3021
90 3735
90 4241
90 4445
91 643
91 665
91 1320
91 2295
91 2345
91 2408
91 2475
91 2841
91 2850
91 3992
91 4223
91 4371
92 175
92 555
92 937
92 1648
92 1739
92 1929
92 2084
92 2307
92 2512
92 2521
92 2706
92 2734
92 3431
92 3615
92 3726
92 4074
92 4096
93 414
93 969
93 1504
93 1553
93 1833
93 2144
93 2274
93 2285
93 2925
93 3718
93 4827
93 4998
94 491
94 608
94 694
94 745
94 1023
94 1545
94 1611
94 2287
94 3499
94 4912
95 128
95 156
95 620
95 693
95 1124
95 1179
95 2824
95 3031
95 3577
95 4026
95 4066
95 4951
96 125
96 317
96 701
96 1081
96 1271
96 1952
96 2048
96 2247
96 2248
96 2300
96 2352
96 2425
96 2579
96 2768
96 3023
96 3236
96 3243
96 3546
96 3549
96 3660
96 3662
96 3837
96 4384
96 4456
96 4688
97 797
97 1649
97 2365
97 2518
97 2572
97 2586
97 2634
97 2898
97 4343
97 4665
97 4722
98 133
98 307
98 344
98 367
98 499
98 874
98 900
98 1790
98 1869
98 2044
98 2110
98 2124
98 2130
98 2162
98 2355
98 2402
98 2425
98 2605
98 2900
98 3064
98 3500
98 3615
98 4159
98 4213
98 4436
98 4542
98 4759
98 4790
98 4929
99 107
99 200
99 258
99 368
99 1316
99 1364
99 1579
99 1591
99 1612
99 2386
99 2412
99 2748
99 2796
99 2848
99 3022
99 3074
99 3348
99 3860
99 3922
99 3925
99 4061
99 4198
99 4297
99 4366
100 872
100 1170
100 2550
100 2783
100 3235
100 3408
100 3967
100 3973
100 4971
100 4999
101 275
101 635
101 644
101 680
101 802
101 1843
101 2014
101 3126
101 3230
101 3706
101 3926
101 4057
102 497
102 665
102 973
102 1527
102 1657
102 1836
102 1870
102 2185
102 2211
102 2214
102 2605
102 2798
102 3621
102 3731
102 3770
102 4075
102 4272
102 4948
103 599
103 652
103 1040
103 1895
103 1971
103 2147
103 2972
103 3289
103 3585
103 3741
103 4290
103 4400
103 4838
104 824
104 995
104 1032
104 1384
104 1799
104 1978
104 2666
104 2780
104 2930
104 3655
104 4567
105 628
105 1307
105 1658
105 2266
105 2970
105 3182
105 3235
105 3436
105 3909
105 4122
105 4151
106 310
106 721
106 1346
106 1530
106 2280
106 2772
106 3050
106 3438
106 3649
106 3685
106 3887
106 4219
106 4781
107 1216
107 2010
107 2848
107 2923
107 3922
107 3925
107 4414
107 4436
107 4528
107 4772
108 327
108 1324
108 1329
108 1589
108 2136
108 2285
108 2647
108 3165
108 3258
108 4242
108 4369
108 4970
109 372
109 606
109 884
109 977
109 1075
109 1229
109 1935
109 1982
109 2408
109 2607
109 2623
109 2764
109 2766
109 2914
109 3240
109 3357
109 3685
109 3692
109 4103
109 4566
109 4571
109 4854
109 4923
109 4996
110 344
110 398
110 579
110 732
110 969
110 1175
110 1397
110 1413
110 1465
110 1753
110 2341
110 2391
110 2400
110 2560
110 2616
110 2651
110 3039
110 3134
110 3155
110 3504
110 4172
110 4311
110 4758
110 4892
111 132
111 241
111 1256
111 1777
111 2282
111 2378
111 2443
111 2602
111 3043
111 3645
111 4174
111 4261
111 4319
111 4665
112 557
112 752
112 975
112 1360
112 1866
112 2169
112 2338
112 2490
112 2581
112 2627
112 2706
112 2847
112 3005
112 4129
112 4399
113 614
113 786
113 967
113 1662
113 2052
113 2462
113 2813
113 3604
113 3807
113 3995
114 531
114 610
114 648
114 712
114 724
114 955
114 988
114 1059
114 1123
114 1159
114 1286
114 1731
114 1826
114 2069
114 2159
114 2286
114 2430
114 2684
114 2752
114 2902
114 3193
114 3226
114 3548
114 4047
114 4085
114 4113
114 4162
114 4420
114 4550
115 251
115 309
115 525
115 729
115 1082
115 1243
115 1312
115 1428
115 1500
115 1538
115 1632
115 1760
115 2321
115 3108
115 3170
115 3353
115 3383
115 3395
115 3481
115 3581
115 3751
115 3977
115 4077
115 4215
115 4237
115 4284
115 4846
115 4865
116 552
116 913
116 1085
116 1238
116 1430
116 2104
116 2254
116 2313
116 2389
116 2951
116 3235
116 3630
116 4029
116 4498
117 156
117 229
117 375
117 409
117 640
117 1069
117 1988
117 2106
117 2162
117 2872
117 3047
117 3110
117 3122
117 3860
117 4005
117 4792
117 4837
118 849
118 1391
118 1901
118 2286
118 2398
118 2463
118 3372
118 3507
118 3790
118 3878
118 4306
118 4394
119 371
119 596
119 756
119 2287
119 2746
119 3220
119 3564
119 4126
119 4907
120 831
120 951
120 1155
120 1209
120 1448
120 2031
120 2197
120 2508
120 2619
120 2678
120 3282
120 3488
120 3526
120 3816
120 4975
121 500
121 551
121 1026
121 1164
121 2004
121 2036
121 2573
121 3265
121 3384
121 4016
121 4878
121 4933
122 498
122 1601
122 2046
122 2607
122 2683
122 2842
122 3022
122 3213
122 3272
122 3375
122 3490
122 3570
122 3627
122 3687
122 4031
122 4814
123 281
123 375
123 931
123 2531
123 2787
123 2842
123 3208
123 3490
123 3703
123 3984
123 4073
123 4422
123 4789
124 913
124 937
124 1816
124 2241
124 2584
124 2869
124 3351
124 3771
124 4051
124 4500
124 4584
124 4699
125 906
125 1406
125 1537
125 1694
125 1774
125 2890
126 317
126 505
126 536
126 2250
126 2975
126 3019
126 4430
126 4843
126 4965
127 199
127 277
127 283
127 300
127 629
127 698
127 1015
127 1020
127 1078
127 1289
127 1623
127 1793
127 1888
127 2029
127 2215
127 2235
127 2323
127 2473
127 2584
127 2775
127 2804
127 3101
127 3288
127 3513
127 3652
127 4317
127 4381
127 4447
127 4534
128 268
128 587
128 693
128 766
128 1124
128 1179
128 1824
128 1826
128 2009
128 2287
128 2335
128 2481
128 3130
128 3334
128 3406
128 3525
128 3577
128 3967
128 3987
128 4159
128 4377
128 4604
128 4717
128 4951
129 147
129 687
129 783
129 894
129 1179
129 1352
129 1571
129 1762
129 1843
129 1882
129 2052
129 2203
129 2419
129 2551
129 2730
129 3614
129 4622
129 4681
130 743
130 1461
130 1564
130 1703
130 2076
130 2226
130 2423
130 2936
130 3331
130 4021
130 4461
131 981
131 1159
131 1296
131 1594
131 2017
131 2501
131 2767
131 3307
131 3589
131 4947
132 220
132 540
132 635
132 668
132 794
132 862
132 1044
132 1145
132 1329
132 1358
132 1809
132 2590
132 3081
132 3492
132 3640
132 3670
132 3725
132 3915
132 3959
132 3966
132 4224
132 4554
133 486
133 551
133 642
133 1055
133 1111
133 1234
133 1348
133 1471
133 1728
133 2167
133 2534
133 2559
133 2607
133 2709
133 3014
133 3060
133 3416
133 3729
133 3861
133 3888
133 4252
133 4303
133 4369
133 4388
133 4417
133 4457
134 303
134 414
134 444
134 772
134 2159
134 2272
134 2490
134 3452
134 4093
134 4415
135 137
135 309
135 450
135 503
135 778
135 1366
135 1413
135 2008
135 3269
135 4593
135 4689
135 4735
136 215
136 444
136 549
136 1466
136 2143
136 2491
136 2621
136 2877
136 2889
136 3072
136 3229
136 3606
136 4653
137 437
137 450
137 637
137 1315
137 1328
137 1366
137 1665
137 1741
137 1818
137 2092
137 2622
137 3269
137 4270
137 4441
137 4605
137 4735
137 4864
138 1120
138 1122
138 1218
138 1299
138 1664
138 1720
138 2277
138 2809
138 3141
138 3225
138 3885
138 3915
138 4117
138 4506
138 4536
138 4538
138 4725
138 4861
138 4964
139 754
139 1123
139 1779
139 1781
139 1905
139 3265
139 3427
139 3639
139 3761
139 3896
139 4375
139 4426
140 581
140 699
140 1176
140 1352
140 1416
140 2563
140 3312
140 4008
140 4418
141 824
141 1125
141 1222
141 1369
141 1396
141 1833
141 2473
141 2790
141 2938
141 3242
141 3385
141 3610
141 3659
141 3850
141 4201
141 4262
141 4811
142 755
142 840
142 902
142 1690
142 2486
142 2687
142 2726
142 4143
143 209
143 515
143 754
143 792
143 931
143 989
143 1073
143 1296
143 1350
143 1464
143 1848
143 1957
143 2060
143 2093
143 2400
143 2862
143 3005
143 3576
143 3828
143 4024
143 4558
143 4580
144 1340
144 1755
144 2300
144 3070
144 3080
144 3482
144 3547
144 3559
144 3849
145 397
145 1423
145 1840
145 2212
145 2410
145 2826
145 3071
145 3139
145 3807
145 4292
145 4677
146 475
146 941
146 1580
146 1600
146 1787
146 1913
146 1926
146 2027
146 2417
146 2567
146 3804
146 4317
146 4404
146 4802
147 361
147 677
147 1571
147 1843
147 1882
147 2259
147 3101
147 3269
147 3683
147 3871
147 3922
147 3930
148 150
148 472
148 737
148 893
148 967
148 1048
148 2169
148 2262
148 3168
148 4644
148 4697
149 423
149 484
149 1501
149 1588
149 1664
149 2183
149 2339
149 2515
149 2620
149 3474
149 3730
149 4273
149 4801
149 4987
150 224
150 290
150 368
150 691
150 744
150 1041
150 1213
150 1418
150 1421
150 1632
150 2189
150 2247
150 2262
150 2263
150 2555
150 3168
150 3359
150 3639
150 3686
150 3904
150 4148
150 4386
150 4644
150 4868
150 4995
151 706
151 1078
151 1271
151 1728
151 1883
151 2627
151 3404
151 4116
151 4367
151 4482
151 4647
151 4663
151 4766
152 743
152 790
152 954
152 1003
152 1171
152 2085
152 2815
152 2959
152 4352
152 4822
153 542
153 1223
153 1390
153 1487
153 1558
153 1706
153 1785
153 2040
153 2584
153 2656
153 2844
153 2896
153 4389
154 182
154 339
154 668
154 1173
154 2025
154 2487
154 2903
154 3661
154 3801
154 4207
154 4234
154 4296
154 4545
154 4916
155 215
155 938
155 1089
155 1605
155 1873
155 2236
155 2548
155 2642
155 2783
155 2823
155 4320
156 409
156 597
156 1069
156 1176
156 1188
156 1464
156 2358
156 2601
156 3860
156 4005
156 4164
156 4837
157 339
157 996
157 1450
157 1546
157 1567
157 1636
157 2238
157 2342
157 2487
157 3608
157 4232
157 4296
157 4545
157 4916
158 1495
158 1543
158 2129
158 2218
158 2310
158 2714
158 3293
158 3610
158 3711
159 209
159 425
159 827
159 2785
159 2867
159 2914
159 3270
159 3606
159 3749
159 4021
159 4616
160 201
160 1809
160 2109
160 3176
160 3294
160 3579
160 3692
160 3928
160 4293
160 4707
161 1322
161 1425
161 1520
161 1568
161 1711
161 1712
161 1732
161 1795
161 3069
161 3147
161 3213
161 3333
161 3563
161 4668
162 811
162 1601
162 1704
162 2383
162 2683
162 2810
162 4640
162 4814
163 179
163 297
163 509
163 584
163 823
163 1104
163 1336
163 1528
163 1535
163 2203
163 2296
163 2514
163 2686
163 2907
163 2938
163 3035
163 3427
163 3475
163 3533
163 3571
163 3604
163 3747
163 3832
163 4002
163 4138
163 4215
163 4489
163 4728
163 4872
164 441
164 460
164 571
164 743
164 1067
164 1146
164 1387
164 1629
164 1810
164 1961
164 2468
164 2735
164 2777
164 2786
164 2822
164 2996
164 3687
164 4074
164 4153
164 4303
164 4447
164 4662
164 4899
165 380
165 1236
165 1508
165 1744
165 1778
165 2102
165 2514
165 2583
165 2844
165 3766
165 4507
165 4780
166 1343
166 1835
166 2282
166 2886
166 3780
166 3831
166 4035
166 4422
166 4521
166 4536
167 443
167 739
167 1263
167 1512
167 1874
167 1987
167 2009
167 2752
167 3581
167 3784
167 3947
167 4068
167 4146
167 4479
168 362
168 478
168 628
168 660
168 703
168 893
168 1296
168 1805
168 2741
168 3743
168 3920
168 4247
169 234
169 356
169 369
169 821
169 1123
169 1229
169 1391
169 1599
169 2934
169 2962
169 3038
169 3325
169 3412
169 3427
169 3864
169 3896
169 4273
169 4278
170 363
170 526
170 762
170 779
170 1227
170 1237
170 1476
170 1542
170 1574
170 1734
170 2338
170 2477
170 2545
170 2553
170 2786
170 3151
170 3163
170 3174
170 3472
170 3493
170 3528
170 3573
170 3672
170 3777
170 3945
170 4021
170 4675
170 4778
171 206
171 417
171 433
171 454
171 877
171 1633
171 1793
171 1966
171 2077
171 3271
171 3587
171 3821
171 4248
171 4552
172 802
172 816
172 833
172 2009
172 2268
172 2761
172 2843
172 2855
172 3370
172 3997
172 4074
172 4317
172 4484
172 4805
173 447
173 951
173 1127
173 1170
173 2122
173 2461
173 2486
173 3140
173 3466
173 3487
173 3514
173 3809
173 4603
174 318
174 441
174 491
174 1622
174 2117
174 2568
174 2627
174 2766
174 3102
174 3568
174 3726
174 3733
174 4038
174 4177
174 4225
174 4236
174 4387
174 4843
174 4885
175 291
175 328
175 641
175 772
175 1822
175 1877
175 2027
175 2314
175 2889
175 3355
175 4487
175 4695
175 4775
176 215
176 474
176 512
176 2055
176 2120
176 2411
176 3013
176 3538
176 3779
176 3905
176 4470
176 4596
176 4682
177 1126
177 2051
177 2072
177 3248
177 3495
177 4155
177 4473
177 4574
178 194
178 861
178 1071
178 1263
178 1910
178 2216
178 2432
178 3000
178 3070
178 3080
178 3615
178 3849
179 780
179 1103
179 1330
179 1369
179 1406
179 1468
179 1855
179 2407
179 2687
179 3537
179 4101
179 4278
180 300
180 625
180 992
180 1150
180 1476
180 1764
180 2039
180 2857
180 3106
180 3228
180 3252
180 3939
180 4262
180 4362
180 4669
181 219
181 1369
181 1396
181 2004
181 2473
181 2790
181 2836
181 3072
181 3172
181 3385
181 3615
181 3719
181 3761
181 4298
182 376
182 672
182 854
182 986
182 1066
182 1414
182 1487
182 1580
182 1700
182 1701
182 2069
182 2120
182 2193
182 2239
182 2256
182 2340
182 2835
182 2890
182 3272
182 3342
182 3401
182 3682
182 3696
182 3780
182 4117
182 4825
182 4963
183 567
183 798
183 1480
183 1498
183 1710
183 1818
183 1852
183 2217
183 2592
183 3072
183 4422
184 480
184 605
184 844
184 1427
184 1535
184 1642
184 1719
184 1815
184 2557
184 2628
184 2667
184 2962
184 3123
184 4958
185 341
185 735
185 883
185 1895
185 2598
185 2603
185 2993
185 3675
185 3779
185 4290
185 4436
185 4446
185 4825
185 4910
186 266
186 645
186 682
186 1451
186 1703
186 1777
186 1928
186 2066
186 2450
186 2483
186 2538
186 2747
186 2837
186 3033
186 3994
186 4347
186 4595
186 4608
186 4690
187 573
187 1120
187 1265
187 1619
187 1814
187 1826
187 2334
187 2589
187 3591
187 3705
187 3843
187 4541
188 356
188 1279
188 1461
188 1497
188 1969
188 2399
188 2946
188 3759
188 4748
188 4801
189 214
189 897
189 1187
189 1368
189 1490
189 1711
189 2216
189 2277
189 2712
189 3542
189 3821
189 4637
189 4813
190 623
190 2330
190 2710
190 2897
190 3379
190 3574
190 3632
190 3737
190 4566
190 4589
190 4738
191 672
191 1095
191 1115
191 1992
191 2206
191 2882
191 3050
191 3079
191 3774
191 4411
191 4476
191 4812
192 299
192 1014
192 1462
192 2364
192 3026
192 3133
192 4716
192 4865
192 4983
193 238
193 607
193 661
193 763
193 807
193 928
193 1138
193 1180
193 1415
193 1523
193 1552
193 1616
193 1841
193 1983
193 2072
193 2742
193 3075
193 3146
193 3172
193 3367
193 3431
193 3432
193 3463
193 3574
193 3808
193 3896
193 3976
193 4131
193 4158
193 4494
193 4762
194 210
194 465
194 707
194 753
194 1691
194 2056
194 2671
194 2903
194 3079
194 3795
195 373
195 1449
195 1696
195 1982
195 2008
195 2106
195 2328
195 2689
195 3335
195 3412
195 3639
195 3766
195 3782
195 3784
195 3940
195 3964
195 4526
195 4626
195 4739
195 4756
195 4820
195 4898
195 4951
196 372
196 573
196 575
196 968
196 1585
196 1698
196 2090
196 3391
196 3396
196 3795
196 3808
196 4341
197 345
197 1132
197 1304
197 1780
197 1904
197 2130
197 2273
197 3857
197 3913
197 4192
197 4265
197 4997
198 293
198 380
198 403
198 464
198 608
198 636
198 674
198 2008
198 2116
198 2133
198 2207
198 2260
198 2424
198 2713
198 2810
198 2831
198 2840
198 2991
198 3650
198 3697
198 3761
198 4034
198 4177
198 4325
198 4664
198 4879
199 230
199 1135
199 1325
199 1515
199 1639
199 1737
199 1871
199 2111
199 2398
199 2940
199 3152
199 3191
199 3320
199 3726
199 3762
199 3799
199 3803
199 4787
199 4986
200 270
200 370
200 552
200 692
200 812
200 965
200 1663
200 1844
200 1875
200 1943
200 1966
200 2069
200 2705
200 2788
200 2813
200 2926
200 2965
200 2984
200 3246
200 3271
200 3293
200 3421
200 3425
200 3771
200 4095
200 4165
200 4302
200 4433
200 4674
201 566
201 601
201 686
201 821
201 956
201 1317
201 1318
201 1613
201 1621
201 1650
201 1766
201 2109
201 2618
201 3058
201 3290
201 3294
201 3579
201 3629
201 3908
201 3927
201 4000
201 4452
201 4837
201 4839
201 4911
202 1126
202 1559
202 1726
202 2042
202 2107
202 2130
202 2169
202 2260
202 2459
202 2799
202 2842
202 3077
202 3105
202 3342
202 4130
202 4356
202 4368
202 4467
202 4607
203 916
203 1072
203 1496
203 1697
203 2506
203 2834
203 2872
203 2931
203 3276
203 3478
203 3701
203 4518
203 4744
204 758
204 877
204 2618
204 2786
204 3635
204 3910
204 3960
204 4184
205 330
205 896
205 1320
205 1342
205 1470
205 1513
205 2906
205 3793
205 4816
206 433
206 454
206 780
206 1793
206 1872
206 2504
206 2860
206 3818
206 3997
206 4902
207 292
207 949
207 1146
207 1500
207 1953
207 2183
207 2879
207 3587
207 4421
207 4503
208 319
208 520
208 743
208 1366
208 1749
208 1756
208 1902
208 2440
208 3407
208 3746
208 3873
208 4124
208 4262
208 4296
208 4459
209 454
209 557
209 618
209 962
209 1148
209 1592
209 1659
209 1683
209 1711
209 1829
209 2100
209 2250
209 2458
209 2528
209 2593
209 2901
209 3228
209 3315
209 3353
209 3422
209 3507
209 3747
209 3767
209 4205
209 4292
209 4463
209 4549
209 4624
210 221
210 609
210 1203
210 1214
210 2641
210 3898
210 4577
211 611
211 1083
211 1317
211 1703
211 1982
211 1996
211 2193
211 2354
211 2672
211 2903
211 3055
211 3609
211 3631
211 3715
211 3938
211 4127
211 4545
211 4866
211 4873
212 471
212 829
212 1213
212 1767
212 2033
212 2177
212 2570
212 2904
212 3048
212 3080
212 3201
212 3781
212 3996
212 4235
212 4585
212 4756
212 4859
213 557
213 1816
213 1989
213 2581
213 2627
213 2932
213 4129
213 4282
213 4812
213 4981
214 436
214 769
214 982
214 1015
214 1156
214 1186
214 1504
214 1573
214 1640
214 1815
214 1877
214 2103
214 2133
214 2138
214 2145
214 2170
214 2401
214 2492
214 2673
214 2747
214 2916
214 2980
214 2988
214 3068
214 3187
214 3269
214 3388
214 3523
214 3685
214 3768
214 3799
214 3883
214 4010
214 4086
214 4133
214 4149
214 4163
214 4445
214 4761
214 4977
215 444
215 1010
215 1236
215 1415
215 1850
215 2143
215 2412
215 2519
215 2621
215 2647
215 2838
215 3135
215 3201
215 3295
215 3506
215 3549
215 3726
215 3972
215 4120
215 4330
215 4653
215 4687
215 4717
215 4810
216 668
216 1116
216 1240
216 1479
216 1645
216 1689
216 2909
216 3961
216 4131
216 4237
216 4262
216 4662
216 4691
216 4715
217 324
217 608
217 1046
217 1802
217 2012
217 3041
217 3062
217 3505
217 3790
217 4291
217 4432
217 4686
217 4940
218 956
218 1976
218 2589
218 2688
218 2938
218 3084
218 4989
219 1369
219 1607
219 1657
219 1720
219 2487
219 2738
219 3242
219 3850
219 3860
220 683
220 697
220 746
220 920
220 969
220 1520
220 1568
220 1682
220 1728
220 2096
220 2798
220 2953
220 3119
220 3285
220 3446
220 3453
220 3474
220 3559
220 3751
220 3923
220 4040
220 4161
220 4176
220 4434
220 4560
221 986
221 1146
221 1203
221 1883
221 1898
221 2099
221 2468
221 2698
221 3031
221 3414
221 3452
221 3565
221 3743
221 3816
221 3898
222 372
222 418
222 791
222 794
222 972
222 1158
222 1166
222 2329
222 2478
222 2482
222 2657
222 3545
223 422
223 495
223 503
223 629
223 675
223 1038
223 1385
223 1724
223 1786
223 2408
223 2816
223 3269
223 4717
223 4894
224 290
224 1295
224 2262
224 2989
224 3152
224 3168
224 3441
224 4188
224 4386
224 4629
224 4644
224 4921
225 378
225 898
225 1332
225 1363
225 1396
225 1589
225 1660
225 2156
225 2626
225 2995
225 4106
225 4146
225 4171
225 4740
226 260
226 349
226 1285
226 1667
226 1990
226 2085
226 2178
226 2179
226 2637
226 2824
226 2959
226 3065
226 3490
226 3603
226 3724
226 4197
227 529
227 545
227 644
227 756
227 865
227 923
227 1179
227 1323
227 2331
227 2836
227 3407
227 3446
227 3742
227 3812
227 3904
227 4198
227 4404
227 4607
227 4849
227 4862
228 1078
228 1503
228 1547
228 1603
228 2167
228 2328
228 2420
228 2770
228 2994
228 3216
228 4282
228 4318
228 4383
228 4951
229 280
229 281
229 394
229 700
229 729
229 1172
229 1190
229 1327
229 1478
229 1494
229 1623
229 1951
229 2241
229 2932
229 3074
229 3158
229 3251
229 3254
229 3461
229 3720
229 3864
229 3875
229 3957
229 3991
229 4483
229 4755
229 4788
229 4996
230 1427
230 1828
230 1994
230 2554
230 3719
230 3947
230 4695
231 760
231 961
231 1543
231 1732
231 2708
231 3699
231 3751
231 4051
231 4299
231 4737
231 4958
232 967
232 2057
232 2225
232 2832
232 2990
232 3588
232 3610
232 4480
233 791
233 886
233 1300
233 1583
233 1651
233 2810
233 2917
233 3745
233 4014
233 4260
233 4454
234 1123
234 1369
234 1789
234 2999
234 3427
234 3500
234 3501
234 3639
234 3896
234 4426
234 4598
235 737
235 776
235 1037
235 1138
235 1199
235 1736
235 3589
235 3977
235 4120
235 4633
235 4952
236 322
236 385
236 821
236 1211
236 1246
236 1303
236 1359
236 1369
236 1387
236 1409
236 1432
236 1717
236 1858
236 1892
236 2267
236 2562
236 2977
236 3074
236 3251
236 3827
236 4214
236 4358
236 4377
236 4429
237 440
237 867
237 1065
237 1662
237 3142
237 3480
237 4150
237 4428
238 291
238 641
238 1112
238 1438
238 1589
238 2053
238 2707
238 2768
238 2946
238 3457
238 3472
238 3911
238 3924
238 3944
238 4042
238 4084
238 4284
238 4685
239 554
239 616
239 640
239 1309
239 1344
239 1690
239 1888
239 2064
239 2382
239 2669
239 2839
239 3016
239 3597
239 3804
239 3931
239 4334
239 4562
240 390
240 549
240 921
240 1778
240 1929
240 2281
240 3313
240 4642
240 4802
240 4874
240 4881
241 1256
241 1315
241 1989
241 2378
241 2443
241 2804
241 2820
241 2915
241 3211
241 3290
241 3559
241 3645
242 487
242 580
242 1036
242 1857
242 1921
242 2103
242 2332
242 2702
242 2705
242 2711
242 2877
242 3248
242 3252
242 3421
242 4155
242 4574
243 465
243 726
243 845
243 862
243 991
243 1016
243 1030
243 1421
243 1845
243 1981
243 2056
243 2301
243 2390
243 2543
243 2676
243 2978
243 3264
243 3463
243 3551
243 4060
243 4292
243 4723
243 4917
243 4952
244 327
244 595
244 664
244 1539
244 1974
244 2698
244 3092
244 4167
244 4244
244 4729
244 4867
245 821
245 900
245 1688
245 1815
245 1938
245 2139
245 2180
245 2318
245 2516
245 2635
245 2976
245 3560
245 4001
245 4442
245 4498
245 4545
245 4615
245 4679
245 4852
246 516
246 662
246 685
246 737
246 1027
246 1589
246 1975
246 4240
246 4357
246 4377
246 4482
246 4603
246 4979
247 345
247 535
247 924
247 994
247 1502
247 1732
247 2660
247 2706
247 3141
247 3713
247 3893
247 4162
247 4936
248 263
248 464
248 1293
248 2064
248 2082
248 2360
248 2580
248 2635
248 2850
248 3202
248 3613
248 3652
248 3782
248 3795
248 4705
248 4857
249 955
249 1061
249 1458
249 2073
249 2101
249 2124
249 2524
249 2872
249 3275
249 3445
249 3546
250 606
250 1155
250 1256
250 1485
250 1660
250 2197
250 3351
250 3526
250 4128
250 4132
250 4261
250 4654
251 390
251 393
251 525
251 652
251 1312
251 1428
251 1500
251 2043
251 2272
251 2413
251 2550
251 2664
251 3354
251 3395
251 3481
251 3661
251 3761
251 4865
252 1374
252 1719
252 2546
252 3014
252 3255
252 3776
252 4159
252 4583
252 4655
252 4842
252 4863
253 1048
253 1775
253 1809
253 1845
253 2057
253 2101
253 2469
253 2537
253 2862
253 3075
253 3295
253 3667
253 4109
254 335
254 624
254 743
254 766
254 879
254 1092
254 1197
254 1460
254 1630
254 1743
254 1950
254 2162
254 2791
254 2802
254 2903
254 3255
254 3265
254 3319
254 3320
254 3583
254 3779
254 4348
254 4373
254 4869
254 4908
255 632
255 828
255 1102
255 1359
255 1494
255 1535
255 1925
255 2145
255 2162
255 2297
255 2626
255 2639
255 2778
255 2930
255 2986
255 2991
255 3037
255 3073
255 3177
255 3191
255 3540
255 3588
255 3852
255 4067
255 4376
255 4434
255 4677
255 4723
255 4763
255 4875
256 1056
256 1824
256 1976
256 2051
256 2532
256 2584
256 3069
256 3084
256 3295
256 3356
256 4410
256 4643
256 4751
256 4990
257 774
257 1818
257 2061
257 3284
257 3477
257 3906
257 4241
257 4395
258 727
258 932
258 1869
258 2104
258 2228
258 2827
258 3083
258 3179
258 3980
258 4187
258 4474
258 4886
258 4958
259 434
259 582
259 711
259 905
259 957
259 983
259 1184
259 1908
259 1946
259 2224
259 2525
259 2576
259 2583
259 2714
259 2942
259 3044
259 3343
259 3390
259 4071
259 4171
259 4430
259 4436
259 4678
259 4690
259 4817
259 4822
260 343
260 747
260 1285
260 1458
260 1516
260 1648
260 1667
260 1862
260 1990
260 2071
260 2141
260 2916
260 2959
260 3102
260 3244
260 3296
260 3533
260 3603
260 4102
260 4197
260 4436
260 4533
260 4885
261 617
261 796
261 1269
261 1338
261 1414
261 1491
261 1546
261 1751
261 1790
261 1989
261 1999
261 2574
261 2657
261 2834
261 2946
261 3007
261 3073
261 3692
261 4090
261 4393
261 4617
261 4922
262 577
262 698
262 902
262 1042
262 1143
262 1187
262 1466
262 1652
262 2347
262 2373
262 3432
262 3570
262 3634
262 3641
262 3644
262 3727
262 3749
262 3858
262 4767
263 402
263 597
263 1093
263 1175
263 3290
263 3653
263 4705
263 4882
264 537
264 856
264 955
264 979
264 1098
264 1162
264 1745
264 1829
264 2022
264 2776
264 2797
264 2812
264 2888
264 2979
264 3004
264 3136
264 3679
264 4552
265 747
265 820
265 1489
265 2436
265 2631
265 2886
265 3000
265 3036
265 3457
265 4266
265 4327
265 4427
265 4572
266 431
266 634
266 952
266 981
266 1112
266 1347
266 1361
266 1548
266 1584
266 1754
266 1934
266 2241
266 2282
266 2321
266 2631
266 3358
266 3666
266 4147
266 4268
266 4283
267 368
267 431
267 579
267 663
267 812
267 1464
267 1525
267 1696
267 1762
267 1820
267 2210
267 2429
267 2507
267 2727
267 2889
267 3045
267 3152
267 3488
267 3563
267 3755
267 4174
267 4177
267 4302
267 4415
267 4524
267 4782
268 347
268 373
268 1248
268 1382
268 1834
268 2948
268 4147
268 4688
269 666
269 700
269 950
269 955
269 1195
269 2127
269 2386
269 2410
269 3126
269 3955
269 4795
270 1244
270 1539
270 1681
270 1945
270 1979
270 2049
270 2236
270 2419
270 2616
270 3094
270 3097
270 3358
270 3394
270 3412
270 4137
270 4194
270 4429
270 4700
271 1022
271 1123
271 2079
271 2140
271 2808
271 3029
271 3159
271 3160
271 3972
271 4007
271 4749
271 4891
272 578
272 686
272 701
272 939
272 1275
272 1831
272 2170
272 2515
272 2601
272 3483
272 4016
272 4192
272 4594
272 4752
273 337
273 359
273 553
273 954
273 1002
273 1171
273 1418
273 1494
273 1550
273 1725
273 1943
273 1982
273 2019
273 2453
273 2608
273 2641
273 2973
273 3043
273 3053
273 3132
273 3152
273 3578
273 3595
273 3628
273 4132
273 4165
273 4225
273 4586
273 4669
273 4900
274 310
274 655
274 927
274 2059
274 2801
274 3111
274 3150
274 3152
274 3893
274 3958
274 4058
274 4312
274 4902
275 680
275 802
275 1473
275 1647
275 1970
275 2092
275 2293
275 2487
275 2772
275 3230
275 3293
275 3706
275 3742
275 3791
275 4057
275 4947
276 558
276 1076
276 1249
276 1259
276 1531
276 3083
276 3119
276 3215
276 3332
276 3519
276 3873
276 4207
276 4282
276 4699
277 540
277 785
277 1594
277 1607
277 2457
277 2556
277 2568
277 2710
277 2755
277 2757
277 2887
277 3322
277 3603
278 403
278 571
278 707
278 753
278 2022
278 2868
278 3079
278 3693
279 405
279 467
279 1034
279 1793
279 2068
279 2368
279 2607
279 3153
279 3456
279 3477
279 3729
279 3785
279 3807
279 4462
279 4492
280 316
280 852
280 1177
280 1448
280 1917
280 2080
280 2344
280 2519
280 2989
280 3485
280 4495
280 4656
281 985
281 1303
281 1579
281 3159
281 3208
281 3984
281 4617
281 4789
282 319
282 534
282 562
282 608
282 1237
282 2883
282 3199
282 4477
282 4626
282 4666
282 4714
283 300
283 952
283 1020
283 1077
283 2367
283 2775
283 2804
283 3161
283 3168
283 3513
283 4381
283 4534
283 4691
284 767
284 921
284 1889
284 1951
284 2496
284 2798
284 2917
284 2970
284 3689
284 4270
284 4307
284 4353
284 4625
284 4719
285 846
285 870
285 888
285 1094
285 1178
285 1789
285 2418
285 2677
285 2774
285 2985
285 3162
285 3189
285 3274
285 3331
285 3429
285 3456
285 3532
285 3617
285 3645
285 3714
285 3782
285 3806
285 4350
285 4829
286 417
286 668
286 867
286 1231
286 1286
286 1636
286 1782
286 2090
286 2173
286 2439
286 2466
286 2492
286 2772
286 2950
286 3383
286 3703
286 4133
286 4323
286 4528
286 4765
286 4915
287 330
287 496
287 858
287 874
287 1483
287 1889
287 2906
287 3534
287 3544
287 3710
287 3793
287 4698
288 915
288 1107
288 1494
288 1661
288 1696
288 1733
288 2674
288 2966
288 3014
288 3168
288 3408
288 3571
288 4249
288 4503
289 450
289 1277
289 1372
289 1690
289 2133
289 2264
289 2369
289 2413
289 2490
289 2492
289 3448
289 3793
289 3876
289 4340
289 4624
290 744
290 1239
290 1462
290 3168
290 3376
290 3558
290 4846
291 434
291 738
291 1112
291 1438
291 1589
291 2571
291 2707
291 2721
291 2768
291 3482
291 3887
291 3924
291 3944
291 4134
291 4629
291 4811
292 542
292 654
292 695
292 1146
292 1953
292 2128
292 2590
292 2818
292 2977
292 2979
292 3020
292 4055
292 4340
292 4503
293 1074
293 1438
293 1920
293 2198
293 2620
293 2778
293 2862
293 3044
293 3173
293 4770
294 321
294 1298
294 1374
294 1578
294 2026
294 3053
294 3255
294 3362
294 3524
294 4159
294 4331
294 4368
294 4609
294 4655
294 4863
295 796
295 1117
295 1202
295 1456
295 1627
295 1771
295 1873
295 1896
295 1943
295 2379
295 3334
295 3616
295 3650
295 3726
295 4156
295 4751
295 4961
296 1060
296 1943
296 2275
296 2358
296 2784
296 2870
296 3126
296 3834
296 3880
296 4167
296 4551
296 4830
297 365
297 759
297 782
297 920
297 1399
297 1607
297 2213
297 2289
297 2582
297 3498
297 4818
298 632
298 702
298 743
298 1954
298 2316
298 2493
298 2724
298 3835
298 4694
298 4705
298 4801
299 427
299 446
299 489
299 804
299 1087
299 1173
299 1312
299 1371
299 1577
299 1680
299 2075
299 2300
299 2542
299 2615
299 2681
299 2998
299 3763
299 3987
299 4018
299 4213
299 4228
299 4272
299 4954
300 372
300 428
300 685
300 697
300 839
300 913
300 1020
300 1088
300 1584
300 2146
300 2188
300 2200
300 2311
300 2614
300 2775
300 2804
300 2808
300 2842
300 3513
300 3692
300 4011
300 4175
300 4381
300 4447
300 4534
300 4535
300 4623
300 4749
301 611
301 702
301 1108
301 1380
301 1455
301 1686
301 2373
301 2493
301 3065
301 3999
301 4108
301 4705
302 350
302 411
302 590
302 753
302 754
302 1220
302 1524
302 1726
302 1734
302 1908
302 1915
302 1983
302 3041
302 3321
302 3553
302 3754
302 4285
302 4987
303 459
303 516
303 1035
303 1614
303 1620
303 2345
303 2766
303 3297
303 3466
303 3907
303 4065
303 4093
303 4374
304 327
304 671
304 1905
304 1994
304 2364
304 2494
304 2594
304 2877
304 4003
304 4858
305 814
305 1299
305 1518
305 1952
305 2300
305 2565
305 3291
305 3631
305 4127
305 4167
306 1433
306 1443
306 1622
306 1655
306 2116
306 3065
307 495
307 505
307 515
307 655
307 723
307 777
307 841
307 1590
307 1755
307 2415
307 2603
307 2611
307 2822
307 3028
307 3461
307 3469
307 3527
307 3657
307 3917
307 3980
307 4017
307 4053
307 4130
307 4580
307 4758
307 4827
307 4844
307 4993
308 721
308 765
308 1308
308 1399
308 1429
308 1562
308 1872
308 1959
308 2573
308 3375
308 3917
308 4095
308 4378
308 4482
308 4820
309 540
309 551
309 576
309 780
309 1219
309 1242
309 1409
309 1420
309 1511
309 1782
309 2052
309 2661
309 3198
309 3212
309 3565
309 3581
309 4351
309 4815
309 4865
309 4936
310 655
310 927
310 1162
310 1163
310 1304
310 1564
310 1576
310 1777
310 1931
310 2528
310 2549
310 2778
310 2867
310 3006
310 3019
310 3417
310 3958
310 4026
310 4056
310 4257
310 4312
310 4950
311 331
311 1063
311 1936
311 2591
311 2834
311 2975
311 3355
311 3441
311 4070
311 4414
311 4895
311 4917
312 466
312 1709
312 1886
312 2391
312 2677
312 2800
312 2918
312 3066
312 3287
313 394
313 543
313 545
313 1240
313 1658
313 2552
313 3887
313 4639
313 4956
314 750
314 793
314 1342
314 1595
314 2169
314 2302
314 2617
314 2717
314 2796
314 2905
314 3139
314 3786
314 4554
314 4699
314 4737
315 391
315 408
315 485
315 751
315 1057
315 1176
315 1348
315 1602
315 1833
315 2024
315 2590
315 2685
315 2894
315 2902
315 2924
315 2987
315 3227
315 3888
315 3961
315 3970
315 4450
315 4611
315 4794
315 4842
316 747
316 1759
316 2624
316 2671
316 3212
316 3268
316 3351
316 3381
316 3978
316 4081
316 4850
317 411
317 499
317 829
317 1600
317 1765
317 2051
317 2250
317 2427
317 2575
317 2975
317 4350
317 4843
318 441
318 1395
318 2038
318 2318
318 3018
318 3102
318 3457
318 4103
318 4885
319 1162
319 1459
319 1512
319 1649
319 1932
319 2043
319 2125
319 2155
319 2323
319 2588
319 2604
319 2660
319 2682
319 2833
319 3022
319 3029
319 3080
319 3248
319 3565
319 3852
319 3916
319 4514
319 4534
319 4623
319 4632
320 510
320 570
320 693
320 766
320 823
320 864
320 890
320 1272
320 1671
320 1842
320 1863
320 2555
320 3249
320 3287
320 3416
320 3552
320 3595
320 3852
320 3859
320 4042
320 4306
320 4359
320 4474
320 4499
321 397
321 457
321 513
321 533
321 664
321 859
321 1259
321 1350
321 1716
321 1740
321 1750
321 1887
321 2829
321 2870
321 3023
321 3261
321 3693
321 4034
321 4130
321 4165
321 4178
321 4596
321 4688
321 4773
321 4782
321 4793
321 4840
322 410
322 484
322 725
322 874
322 978
322 1303
322 1321
322 1494
322 1564
322 1663
322 1716
322 2137
322 2342
322 2448
322 3147
322 3224
322 3657
322 3707
322 3906
322 3985
322 4537
322 4938
323 490
323 1286
323 1356
323 1449
323 1486
323 1694
323 1767
323 2034
323 2685
323 2739
323 2776
323 2905
323 3188
323 3206
323 3529
323 3756
323 3898
323 4013
323 4034
323 4099
323 4263
323 4368
323 4527
323 4531
323 4940
324 557
324 1230
324 1791
324 1956
324 2180
324 2342
324 2398
324 2608
324 2672
324 2841
324 3608
324 3796
324 4768
324 4900
325 634
325 1119
325 1361
325 1548
325 1754
325 2089
325 2492
325 3013
325 3131
325 3652
325 3666
325 4663
325 4960
326 439
326 969
326 1760
326 2025
326 2027
326 2160
326 2904
326 3019
326 3707
326 4146
326 4471
326 4613
327 361
327 517
327 998
327 1042
327 1381
327 1436
327 1634
327 1652
327 2305
327 2311
327 2345
327 2709
327 3097
327 3153
327 3201
327 3386
327 3435
327 3550
327 3823
327 3896
327 3933
327 4082
327 4138
327 4537
327 4734
328 727
328 1821
328 2745
328 2986
328 3012
328 3135
328 3422
328 3557
328 3743
328 3775
328 3877
328 4130
328 4469
328 4887
328 4908
328 4925
329 423
329 653
329 712
329 1131
329 1349
329 2078
329 2185
329 2701
329 2730
329 2942
329 3646
329 3697
329 3709
329 3829
329 3925
329 3927
329 4425
329 4689
329 4942
330 347
330 440
330 470
330 496
330 855
330 1028
330 1668
330 2092
330 2176
330 2906
330 2966
330 3793
330 3861
330 4265
330 4518
330 4713
330 4724
331 379
331 1936
331 2203
331 2748
331 3305
331 3355
331 3441
331 3918
331 4016
331 4808
332 501
332 724
332 1276
332 1543
332 1839
332 1850
332 1859
332 1964
332 3721
332 4066
332 4137
332 4170
332 4204
332 4288
332 4440
332 4567
332 4593
333 434
333 592
333 818
333 1092
333 1186
333 1292
333 1995
333 2492
333 3081
333 3477
333 3509
333 3593
333 3989
333 4109
333 4281
333 4670
334 449
334 909
334 1531
334 1710
334 1920
334 2280
334 2462
334 2491
334 2750
334 2815
334 2932
334 2981
334 2994
334 3077
334 3137
334 3183
334 3308
334 4144
334 4607
334 4800
334 4905
335 681
335 713
335 756
335 772
335 879
335 1107
335 1221
335 1475
335 1686
335 1743
335 1800
335 1950
335 2015
335 2070
335 3116
335 3319
335 3324
335 3731
335 3741
335 3779
335 3898
335 4348
335 4442
335 4463
335 4869
336 797
336 2220
336 2365
336 3097
336 3129
336 3852
336 4343
336 4954
337 400
337 839
337 946
337 1033
337 1488
337 1550
337 1979
337 2029
337 2257
337 3058
337 3187
337 3222
337 3802
337 3889
337 3930
337 4397
337 4540
337 4638
338 408
338 825
338 1450
338 1935
338 3982
338 4013
338 4031
338 4241
338 4276
338 4464
339 1336
339 1736
339 2342
339 2408
339 2487
339 4296
339 4545
339 4916
340 360
340 615
340 965
340 1051
340 1347
340 1450
340 1575
340 2013
340 2480
340 2507
340 2645
340 3087
340 3093
340 3179
340 3195
340 3253
340 3318
340 3649
340 4027
340 4092
340 4221
341 1972
341 2685
341 2789
341 2993
341 3345
341 4290
341 4380
341 4436
341 4691
341 4789
341 4910
342 653
342 953
342 1824
342 1926
342 2147
342 3646
342 3651
342 3832
342 4091
342 4645
342 4727
342 4821
343 1085
343 1144
343 1599
343 1686
343 2518
343 2959
343 3328
343 3603
343 4197
343 4251
343 4921
344 1576
344 1629
344 2218
344 2310
344 2491
344 2714
344 3011
344 3249
344 4073
345 407
345 428
345 546
345 709
345 710
345 813
345 995
345 1067
345 1131
345 1332
345 1536
345 1615
345 1998
345 2686
345 2815
345 3223
345 3509
345 3568
345 3663
345 4187
345 4358
345 4456
345 4682
346 558
346 581
346 736
346 813
346 842
346 1043
346 1106
346 1126
346 1195
346 1200
346 1416
346 1758
346 2178
346 2434
346 3085
346 3184
346 3339
346 3875
346 3922
346 3927
346 3930
346 4185
346 4444
346 4539
346 4597
346 4801
347 468
347 469
347 478
347 593
347 1248
347 1354
347 2427
347 3642
347 3847
347 3914
347 4647
347 4741
348 489
348 696
348 855
348 1617
348 2418
348 2771
348 3223
348 3336
348 3544
348 3787
348 4579
348 4714
348 4878
349 591
349 701
349 1004
349 1047
349 1174
349 1699
349 1851
349 2629
349 3241
349 3580
349 3753
350 590
350 748
350 1127
350 1220
350 1564
350 1734
350 1908
350 2767
350 2811
350 3168
350 3321
350 3754
350 3852
350 4003
350 4019
350 4243
350 4285
350 4373
350 4598
350 4711
350 4744
350 4838
350 4918
350 4966
350 4987
351 793
351 854
351 869
351 1570
351 1871
351 1920
351 2838
351 2851
351 3169
351 3608
351 4216
351 4370
351 4821
351 4879
352 527
352 588
352 592
352 1021
352 1200
352 1242
352 1944
352 2072
352 2090
352 2221
352 2241
352 2405
352 2449
352 2802
352 3008
352 3090
352 3226
352 3448
352 3553
352 3640
352 3760
352 3767
352 3974
352 4195
352 4410
352 4509
352 4520
352 4664
352 4974
353 442
353 557
353 1444
353 1551
353 1716
353 2059
353 2093
353 2335
353 2738
353 2930
353 2983
353 3560
353 3773
354 429
354 855
354 915
354 1294
354 1440
354 1810
354 1893
354 1941
354 1976
354 2190
354 2275
354 2333
354 2514
354 2770
354 2901
354 3525
354 3712
354 3973
354 4034
354 4166
354 4218
354 4535
354 4559
354 4683
354 4869
354 4954
354 4959
355 662
355 771
355 823
355 1494
355 2395
355 2752
355 3095
355 3570
355 4319
355 4361
355 4407
355 4414
355 4545
355 4795
356 536
356 1233
356 1682
356 2043
356 2076
356 2144
356 2228
356 2313
356 2386
356 2642
356 2808
356 3118
356 3153
356 3364
356 3431
356 3583
356 3631
356 4032
356 4094
356 4298
356 4440
356 4649
356 4667
356 4769
356 4799
356 4960
357 1301
357 1321
357 1615
357 2095
357 3268
357 3629
357 3928
357 4626
357 4734
357 4794
357 4798
357 4968
357 4978
358 634
358 883
358 1185
358 1702
358 1812
358 2144
358 2657
358 2717
358 3037
358 3291
358 3636
358 4929
359 629
359 1024
359 1054
359 1387
359 1681
359 1944
359 2499
359 3114
359 3274
359 4333
359 4599
359 4744
359 4835
360 948
360 1895
360 2547
360 3113
360 3175
360 3854
360 4137
360 4279
360 4760
360 4868
360 4927
360 4963
361 530
361 868
361 956
361 1576
361 2248
361 2659
361 3289
361 3713
361 4438
362 459
362 1492
362 1821
362 2198
362 3557
362 3580
362 4028
362 4130
362 4887
362 4925
363 623
363 1132
363 1877
363 2209
363 2541
363 2858
363 2897
363 3632
363 4329
364 719
364 812
364 1299
364 2579
364 2872
364 3069
364 3231
364 3478
364 3660
364 3701
364 3911
364 3928
364 4518
364 4744
365 379
365 729
365 983
365 1633
365 2961
365 2973
365 2994
365 3013
365 3133
365 3687
366 738
366 765
366 1304
366 1358
366 1459
366 2231
366 2947
366 2997
366 3055
366 3804
366 4359
366 4415
367 1161
367 1389
367 1917
367 2172
367 2286
367 2406
367 2433
367 3303
367 3576
367 4001
367 4009
367 4046
367 4162
368 907
368 1151
368 1408
368 1465
368 1671
368 1820
368 1907
368 2491
368 2559
368 2667
368 3215
368 3361
368 3569
369 397
369 466
369 575
369 1085
369 1107
369 1279
369 1370
369 1625
369 1847
369 1863
369 1984
369 2150
369 2338
369 2358
369 2692
369 2966
369 3014
369 3232
369 3265
369 3849
369 4110
369 4139
369 4550
369 4708
369 4884
369 4943
369 4984
369 4998
370 692
370 903
370 965
370 1331
370 1600
370 1844
370 2039
370 3158
370 3421
370 3425
370 3804
370 4433
370 4450
371 664
371 756
371 819
371 1136
371 2746
371 2856
371 3056
371 3243
371 3316
371 3828
371 4126
371 4445
371 4518
371 4888
372 968
372 1039
372 1380
372 1581
372 1585
372 1698
372 3808
372 3817
372 4103
372 4131
372 4262
373 746
373 989
373 1125
373 1197
373 1660
373 1746
373 2065
373 2486
373 2581
373 2634
373 2656
373 2763
373 3068
373 3293
373 3584
373 4001
373 4623
374 762
374 806
374 933
374 943
374 1104
374 1769
374 2918
374 3574
374 3585
374 4196
374 4737
375 701
375 1069
375 1150
375 1988
375 3860
375 4005
375 4837
375 4846
376 388
376 824
376 1863
376 1902
376 2074
376 2091
376 2424
376 3042
376 3075
376 3575
376 3605
376 3664
376 3839
376 4302
377 1719
377 2559
377 2628
377 2676
377 3570
377 3818
377 3828
377 4264
377 4749
378 1070
378 1121
378 1351
378 1506
378 2152
378 2389
378 2626
378 3800
378 3890
378 4146
378 4376
378 4514
378 4606
379 493
379 557
379 729
379 983
379 1045
379 1562
379 1590
379 1633
379 2549
379 2627
379 2722
379 2894
379 2961
379 3013
379 3936
379 4160
379 4469
380 952
380 1508
380 1718
380 1744
380 1778
380 1797
380 2102
380 2514
380 2583
380 2929
380 3050
380 3769
380 4277
380 4302
380 4780
381 900
381 1179
381 2060
381 2134
381 2189
381 2359
381 2630
381 2743
381 3304
381 3642
381 3778
381 4056
381 4187
382 421
382 742
382 1070
382 1458
382 1665
382 1779
382 2158
382 2170
382 2339
382 2615
382 3020
382 3101
382 4253
383 689
383 834
383 1013
383 1366
383 1431
383 2716
383 3742
383 4634
383 4797
383 4806
384 777
384 959
384 2142
384 2437
384 2919
384 3158
384 3410
384 3558
384 4042
384 4219
384 4605
385 418
385 475
385 722
385 791
385 972
385 1166
385 2109
385 2482
385 2655
385 2724
385 3545
385 3677
385 4154
385 4649
386 1346
386 1530
386 1557
386 1614
386 2090
386 2709
386 2772
386 3102
386 3369
386 3649
386 3665
386 4352
387 786
387 824
387 1166
387 1181
387 1295
387 1321
387 2052
387 3082
387 3468
387 3573
387 3768
387 3879
387 3973
387 4044
387 4764
387 4831
388 1276
388 1379
388 1453
388 1495
388 2012
388 2117
388 2288
388 2424
388 2472
388 2558
388 2679
388 2713
388 2939
388 3042
388 3055
388 3511
388 3575
388 3775
388 3839
388 3851
388 4270
388 4324
388 4498
388 4585
388 4737
388 4794
388 4841
388 4874
389 422
389 506
389 666
389 973
389 1141
389 1725
389 2465
389 2660
389 3000
389 3321
389 3691
389 4051
389 4742
389 4857
390 970
390 1049
390 1363
390 1658
390 1733
390 1758
390 1935
390 2281
390 2446
390 2530
390 2741
390 3041
390 3135
390 3253
390 3313
390 3328
390 3531
390 3884
390 3993
390 4037
390 4642
390 4829
390 4881
391 751
391 951
391 1057
391 1308
391 2324
391 2590
391 2679
391 2684
391 2894
391 2902
391 2914
391 3661
391 3990
391 4450
391 4842
391 4908
392 520
392 526
392 673
392 769
392 825
392 1208
392 1233
392 1484
392 1490
392 2805
392 2807
392 2858
392 3208
392 3494
392 4107
393 757
393 776
393 1245
393 1270
393 1470
393 2010
393 2435
393 2967
393 3421
393 3503
393 3766
393 4043
393 4328
393 4738
394 625
394 648
394 1459
394 1629
394 3252
394 3868
394 4116
394 4633
394 4956
395 2222
395 2391
395 2406
395 2464
395 3010
395 3090
395 4525
395 4979
396 531
396 1051
396 1781
396 2428
396 2947
396 3325
396 4333
396 4337
396 4468
396 4714
397 821
397 1423
397 1945
397 2212
397 2816
397 3285
397 3807
397 3952
397 4783
397 4864
398 882
398 1397
398 1413
398 1753
398 2687
398 3210
398 4026
398 4892
399 588
399 654
399 1245
399 1377
399 1473
399 1775
399 1997
399 2277
399 3333
399 3413
399 4303
399 4319
399 4508
399 4954
400 533
400 2000
400 2034
400 2196
400 2536
400 3133
400 3792
400 4274
400 4637
400 4774
400 4828
401 746
401 788
401 790
401 1342
401 1838
401 1860
401 2454
401 2602
401 2987
401 3202
401 3314
401 3530
401 3534
401 4227
401 4794
402 1275
402 1897
402 2328
402 2416
402 3304
403 441
403 526
403 635
403 636
403 674
403 1008
403 1458
403 1473
403 1722
403 1963
403 2207
403 2483
403 2626
403 2730
403 2831
403 2840
403 2991
403 3083
403 3283
403 3365
403 3476
403 3574
403 3884
403 3953
403 4177
403 4323
403 4325
403 4532
403 4755
403 4824
404 433
404 1090
404 1154
404 1941
404 2200
404 2654
404 2971
404 3088
404 3263
404 3690
404 3804
404 4042
404 4084
404 4088
404 4293
404 4772
405 662
405 751
405 2175
405 2368
405 2584
405 2983
405 3357
405 4277
405 4462
405 4651
405 4818
406 564
406 788
406 1347
406 1798
406 1960
406 2056
406 2517
406 3263
406 3477
407 500
407 551
407 677
407 1026
407 1155
407 1972
407 1993
407 2004
407 2573
407 3727
407 4047
407 4653
408 825
408 942
408 1260
408 1329
408 1631
408 2647
408 2699
408 3430
408 3982
408 4422
408 4585
408 4989
409 640
409 843
409 1069
409 1988
409 2679
409 2769
409 2831
409 3062
409 3860
409 4005
409 4181
409 4269
409 4553
410 412
410 704
410 982
410 1758
410 1899
410 2382
410 2933
410 3004
410 3011
410 3214
410 3454
410 3735
410 3748
410 4265
410 4423
410 4492
410 4851
411 694
411 1362
411 1691
411 1828
411 1929
411 2172
411 2275
411 2463
411 2938
411 3018
411 3296
411 3687
411 3708
411 3874
411 4103
411 4187
411 4850
412 704
412 719
412 1758
412 1962
412 2461
412 2933
412 3004
412 3011
412 3119
412 3260
412 3689
412 4265
412 4423
412 4595
412 4813
412 4877
413 415
413 440
413 627
413 1012
413 1362
413 1569
413 2247
413 2441
413 3142
413 4428
413 4877
414 1526
414 2208
414 2752
414 2963
414 3289
414 3422
414 3575
414 3718
414 4074
414 4998
415 422
415 440
415 3142
415 3856
415 4428
415 4927
416 697
416 815
416 820
416 1095
416 1546
416 1958
416 3036
416 3939
416 4383
416 4427
416 4533
416 4572
417 426
417 454
417 603
417 923
417 1715
417 1793
417 1931
417 2077
417 2104
417 2677
417 3195
417 3790
417 4417
418 791
418 803
418 921
418 972
418 1094
418 1166
418 1332
418 1349
418 1354
418 1678
418 2329
418 2359
418 2373
418 2482
418 2969
418 3413
418 3502
418 3545
419 562
419 892
419 905
419 1632
419 1678
419 1687
419 1715
419 1986
419 2831
419 3760
419 4503
419 4634
419 4667
420 996
420 1529
420 2341
420 2440
420 3045
420 3873
420 4063
421 996
421 2055
421 2158
421 2771
421 2977
421 3101
421 3703
421 4329
421 4767
422 629
422 675
422 1385
422 2012
422 2349
422 2394
422 3429
422 3466
422 3819
422 3971
422 4141
422 4194
423 648
423 653
423 1209
423 1554
423 2054
423 3109
423 3646
423 3709
423 3798
423 3927
423 4475
423 4689
423 4792
423 4816
423 4971
424 447
424 626
424 1051
424 1198
424 1333
424 2908
424 4333
424 4553
424 4555
424 4711
425 998
425 1266
425 1279
425 1365
425 1421
425 1534
425 1613
425 2025
425 2867
425 3270
425 3283
425 3512
425 3606
425 3797
425 4284
425 4389
425 4676
425 4680
425 4998
426 433
426 454
426 854
426 1793
426 1872
426 2077
426 3197
426 3551
426 3997
426 4992
427 785
427 792
427 1374
427 1620
427 1742
427 2601
427 2696
427 2816
427 3622
428 498
428 1447
428 1544
428 2240
428 3140
428 3516
428 3717
428 4247
428 4432
428 4687
428 4812
429 855
429 957
429 1115
429 1440
429 1570
429 1949
429 2540
429 3243
429 3712
429 3973
429 4218
429 4272
429 4559
429 4608
429 4865
429 4880
430 445
430 950
430 2165
430 2826
430 3266
430 4004
430 4527
430 4541
430 4543
431 2041
431 2072
431 2602
431 3295
431 3780
431 4081
431 4809
432 2198
432 2814
432 3490
432 3719
432 3840
432 4408
432 4813
433 454
433 528
433 651
433 658
433 1019
433 1167
433 1502
433 1705
433 1745
433 1793
433 1872
433 1904
433 1977
433 2077
433 2274
433 2560
433 3500
433 3997
433 4199
433 4444
433 4506
433 4517
433 4731
433 4739
433 4779
434 923
434 1171
434 1586
434 1796
434 2560
434 3311
434 3802
434 3886
434 4273
434 4908
435 1927
435 2011
435 2208
435 2735
435 2843
435 3536
435 3584
435 3629
435 4091
435 4461
435 4496
435 4587
435 4928
435 4938
436 566
436 778
436 1015
436 1653
436 1815
436 1817
436 1949
436 2005
436 2170
436 2401
436 3187
436 3657
436 3685
436 3768
436 4086
437 717
437 1039
437 1389
437 1672
437 1732
437 1793
437 1958
437 3257
437 3346
437 3552
437 3681
437 3695
437 3859
437 3929
437 4182
437 4664
437 4754
437 4937
437 4950
438 646
438 657
438 1193
438 1683
438 2170
438 2242
438 3299
438 3599
438 3897
438 4733
438 4954
439 575
439 740
439 877
439 1024
439 1453
439 1554
439 1669
439 1737
439 1824
439 1861
439 2047
439 2095
439 2106
439 2214
439 2304
439 2364
439 2916
439 2938
439 3268
439 3450
439 4069
439 4205
439 4237
439 4746
439 4964
440 505
440 867
440 1065
440 1091
440 1897
440 2044
440 2560
440 3142
440 3634
440 3856
440 4428
441 492
441 507
441 593
441 1303
441 1629
441 1673
441 1766
441 2039
441 2070
441 2248
441 2373
441 2570
441 3102
441 3555
441 3589
441 3764
441 3803
441 4011
441 4038
441 4236
441 4302
441 4311
441 4387
441 4795
441 4885
442 1444
442 1454
442 1716
442 2059
442 2294
442 2335
442 2983
442 3404
442 3500
442 3560
442 4267
442 4490
442 4633
442 4638
443 517
443 879
443 1060
443 1500
443 1644
443 1868
443 1980
443 2005
443 2069
443 2088
443 2321
443 2546
443 2941
443 3313
443 3423
443 3440
443 3933
443 4080
443 4350
443 4426
443 4513
443 4564
443 4656
443 4715
444 627
444 642
444 1010
444 1415
444 1570
444 1869
444 1952
444 1980
444 2143
444 2621
444 2738
444 2760
444 2930
444 3264
444 3536
444 3642
444 3868
444 4046
444 4369
444 4479
444 4614
444 4653
444 4687
444 4810
445 572
445 950
445 1682
445 1971
445 2157
445 2468
445 2583
445 2826
445 2963
445 3266
445 3385
445 3801
445 3834
445 3901
445 4852
446 519
446 521
446 795
446 1181
446 1846
446 2103
446 2270
446 2625
446 2666
446 2762
446 2889
446 3045
446 3464
446 3671
446 4125
447 626
447 768
447 1716
447 2239
447 2268
447 2698
447 2757
447 2797
447 3236
447 3250
447 4050
447 4553
448 550
448 728
448 821
448 1279
448 1575
448 1593
448 1882
448 2330
448 2714
448 3711
448 3823
448 4132
448 4355
448 4520
448 4723
448 4762
448 4783
448 4902
448 4944
449 909
449 1348
449 1439
449 2493
449 2981
449 2994
449 3137
449 3712
449 4144
449 4538
449 4565
449 4601
449 4687
450 521
450 892
450 1251
450 1306
450 1315
450 1328
450 1366
450 1409
450 1440
450 1775
450 2163
450 2777
450 2805
450 3075
450 3104
450 3150
450 3269
450 3408
450 3451
450 3542
450 3592
450 3889
450 4131
450 4375
450 4437
450 4461
450 4735
451 1287
451 1365
451 2184
451 2897
451 3118
451 3215
451 3705
451 3850
451 4067
451 4201
451 4269
451 4514
451 4556
451 4691
452 1292
452 1357
452 2480
452 2785
452 2992
452 3146
452 3272
452 3719
452 4379
452 4587
453 646
453 1022
453 1546
453 1641
453 2358
453 2444
453 3260
453 3327
453 3489
453 3524
453 3688
453 4134
454 1793
454 1933
454 2006
454 2296
454 2595
454 3997
454 4203
455 1006
455 1630
455 2117
455 2136
455 2283
455 2369
455 2426
455 2449
455 2654
455 3083
455 3317
455 3775
455 4326
455 4395
455 4406
456 613
456 751
456 1042
456 1045
456 1118
456 1418
456 1480
456 1573
456 1815
456 1910
456 1982
456 2145
456 2170
456 2401
456 2492
456 2980
456 3068
456 3187
456 3685
456 3768
456 4086
456 4273
456 4445
456 4446
456 4761
456 4867
457 688
457 724
457 1024
457 1259
457 1450
457 1590
457 1740
457 1941
457 2281
457 2829
457 3238
457 4423
457 4532
457 4576
457 4688
457 4793
458 520
458 1272
458 2141
458 2320
458 2452
458 2723
458 2745
458 3378
458 3589
458 3773
458 3788
458 4039
458 4268
458 4398
458 4504
459 735
459 1418
459 1642
459 2183
459 3510
459 3680
460 571
460 874
460 1147
460 1270
460 1321
460 1387
460 1810
460 1811
460 3687
460 4797
461 726
461 858
461 1023
461 1215
461 1975
461 2001
461 2105
461 2142
461 2683
461 2753
461 3205
461 3632
461 3818
461 4258
462 506
462 659
462 833
462 1287
462 1354
462 1380
462 1716
462 2290
462 3118
462 3122
462 4067
462 4201
462 4375
462 4487
463 1074
463 1351
463 2198
463 2267
463 2449
463 2825
463 3446
463 3607
463 4770
463 4903
463 4998
464 687
464 814
464 1117
464 1761
464 2412
464 2426
464 2565
464 3548
464 4260
464 4917
465 667
465 707
465 782
465 1064
465 1776
465 1844
465 2890
465 4086
465 4809
465 4828
465 4895
466 477
466 807
466 1709
466 1886
466 2257
466 3287
466 3313
466 3846
466 3948
466 4945
467 946
467 1308
467 1406
467 1537
467 1774
467 2055
467 2380
467 2399
467 2890
467 2988
467 4079
467 4137
467 4419
468 631
468 1237
468 1248
468 1445
468 2030
468 2427
468 2551
468 3235
468 4287
468 4402
469 1665
469 2328
469 2444
469 2579
469 2619
469 2798
469 4165
469 4906
470 677
470 948
470 1099
470 1215
470 1344
470 1350
470 1371
470 2151
470 2241
470 2535
470 2808
470 3110
470 3310
470 4070
470 4164
470 4938
471 829
471 2015
471 2143
471 2801
471 3319
471 4235
471 4703
471 4859
472 728
472 729
472 1322
472 1971
472 2805
472 2955
472 4170
473 947
473 1343
473 1373
473 2257
473 2282
473 2886
473 3230
473 3831
473 4035
473 4351
473 4536
474 485
474 880
474 1281
474 1501
474 2429
474 2764
474 3035
474 3100
474 3538
474 3681
474 4470
474 4622
475 499
475 530
475 669
475 941
475 1006
475 1021
475 1787
475 1913
475 1926
475 2027
475 2079
475 2126
475 2151
475 2201
475 2873
475 3216
475 3737
475 3935
475 4007
475 4041
475 4338
475 4343
475 4404
475 4562
475 4802
476 523
476 1590
476 1780
476 1835
476 2174
476 2953
476 3104
476 3112
476 3404
476 3824
476 4018
476 4233
476 4614
477 1402
477 1429
477 1709
477 1824
477 1886
477 2276
477 2423
477 2512
477 2876
477 2918
477 3285
477 3287
477 3654
477 4283
477 4618
477 4726
478 518
478 628
478 660
478 777
478 974
478 1066
478 1290
478 1296
478 1774
478 1805
478 1812
478 2353
478 2390
478 2398
478 2915
478 3071
478 3203
478 3206
478 4157
478 4699
478 4703
479 1011
479 1280
479 1719
479 1981
479 2007
479 2297
479 2385
479 2526
479 3063
479 3097
479 3375
479 3470
479 3856
479 4181
479 4434
479 4858
480 585
480 680
480 785
480 1858
480 2024
480 2962
480 3012
480 3348
480 3683
480 3724
480 4147
481 884
481 1005
481 1088
481 1115
481 1229
481 1694
481 1834
481 1982
481 2071
481 2305
481 2325
481 3024
482 627
482 1186
482 1465
482 1521
482 2085
482 2141
482 2764
482 2911
482 4258
482 4496
483 1187
483 1196
483 1453
483 1594
483 1679
483 1714
483 1773
483 2041
483 2072
483 2136
483 2292
483 2772
483 2913
483 3051
483 3101
483 3602
483 3780
483 4238
483 4319
483 4809
483 4969
484 685
484 1105
484 1588
484 1624
484 1626
484 1752
484 1779
484 1853
484 2183
484 2340
484 2515
484 2653
484 3324
484 3672
484 4042
484 4273
484 4692
484 4697
485 527
485 564
485 582
485 626
485 982
485 1011
485 1099
485 1752
485 1811
485 2551
485 2818
485 2835
485 3016
485 3049
485 3150
485 3213
485 3336
485 3408
485 3502
485 3509
485 4039
485 4118
485 4437
485 4832
485 4893
485 4955
486 701
486 894
486 953
486 2490
486 2888
486 3060
486 3540
486 3729
486 4252
486 4426
487 951
487 1036
487 1095
487 1295
487 1401
487 1599
487 1778
487 1921
487 2103
487 2581
487 2702
487 2835
487 3248
487 3344
487 4155
487 4574
488 606
488 697
488 902
488 1187
488 1589
488 1638
488 1834
488 1987
488 2937
488 3059
488 3570
488 3643
488 3731
489 757
489 1063
489 1528
489 2094
489 2099
489 2329
489 2356
489 2628
489 2953
489 3002
489 3076
489 3123
489 3351
489 3462
489 4536
490 1286
490 1449
490 2310
490 2494
490 2609
490 2711
490 2776
490 3529
490 3548
490 3633
490 4013
490 4264
490 4399
490 4531
491 762
491 1198
491 1282
491 1353
491 3010
491 3488
491 3571
491 4806
492 606
492 1326
492 1760
492 2271
492 2934
492 3183
492 3247
492 4041
492 4067
492 4533
492 4690
492 4704
493 554
493 852
493 2144
493 2679
493 3046
493 3952
493 4262
493 4466
493 4626
494 1057
494 2033
494 2049
494 2377
494 2723
494 3008
494 3502
494 3574
494 4115
495 727
495 1186
495 1521
495 1809
495 1915
495 2141
495 2911
495 3080
495 3171
495 3535
495 3943
495 4492
495 4986
496 600
496 949
496 1183
496 2010
496 2070
496 2212
496 2630
496 2785
496 2906
496 3793
496 4202
496 4713
497 652
497 1235
497 1441
497 1527
497 1657
497 1796
497 2596
497 3129
497 3770
497 4138
497 4550
498 1601
498 1776
498 2206
498 2675
498 2683
498 2921
498 3098
498 3414
498 4031
498 4296
498 4624
498 4675
499 905
499 981
499 1505
499 1575
499 2263
499 2806
499 2929
499 4514
499 4812
499 4854
499 4926
500 945
500 1026
500 1174
500 1733
500 1744
500 1812
500 2004
500 2036
500 2727
500 4607
501 535
501 854
501 1249
501 2002
501 2223
501 2384
501 3215
501 3519
501 4207
502 1140
502 2044
502 2494
502 2922
502 2970
502 3208
502 3287
502 3731
502 3749
502 4258
502 4550
503 741
503 770
503 941
503 1138
503 1198
503 1389
503 1610
503 1782
503 1951
503 2450
503 2451
503 2682
503 3710
503 3915
503 4049
503 4689
504 1120
504 1233
504 1295
504 1592
504 1829
504 1981
504 2908
504 3342
504 3959
504 4205
504 4463
504 4549
504 4835
505 843
505 2202
505 2250
505 2268
505 2575
505 3043
505 3080
505 3928
505 4350
505 4383
506 1287
506 2355
506 3118
506 3122
506 4375
506 4971
507 841
507 1060
507 3090
507 3342
507 4403
507 4525
507 4633
507 4767
508 734
508 1197
508 1708
508 2014
508 2344
508 2678
508 3507
508 3709
508 3952
508 4055
508 4461
508 4712
509 584
509 2093
509 2111
509 2203
509 2686
509 3074
509 3475
509 3533
509 3719
509 4589
510 1936
510 2175
510 2663
510 2871
510 2884
510 3351
510 3678
510 3683
510 4169
510 4243
510 4702
510 4907
511 731
511 2433
511 2672
511 2820
511 3732
511 4181
511 4462
511 4537
512 553
512 781
512 849
512 2417
512 2542
512 2866
512 3028
512 3121
512 3176
512 3325
512 3361
512 3879
512 4108
512 4121
512 4461
512 4641
512 4934
513 859
513 892
513 1565
513 1740
513 2829
513 3589
513 3943
513 4688
513 4793
514 965
514 1271
514 1666
514 2587
514 3264
514 3425
514 3539
514 3750
514 3879
514 3932
514 4166
514 4449
514 4795
514 4827
514 4927
515 664
515 795
515 968
515 1146
515 1170
515 1354
515 1866
515 2041
515 2338
515 2404
515 2768
515 2830
515 2854
515 3345
515 4011
515 4175
515 4656
516 1476
516 2382
516 2635
516 3084
516 3333
516 3680
516 4374
516 4509
517 1351
517 1376
517 2243
517 2455
517 2523
517 2944
517 3030
517 4347
517 4847
518 628
518 974
518 1066
518 1296
518 2178
518 2188
518 2353
518 3186
518 3354
518 3566
518 3709
518 3992
518 4483
519 598
519 1776
519 1846
519 2190
519 2889
519 3054
519 3341
519 3464
519 3807
519 4928
520 541
520 543
520 591
520 616
520 658
520 667
520 677
520 1158
520 1585
520 1657
520 1985
520 2071
520 2291
520 2511
520 2627
520 2707
520 2748
520 2908
520 3078
520 3176
520 3411
520 3598
520 3948
520 3994
520 4015
520 4028
520 4137
520 4333
520 4566
521 1127
521 1257
521 2047
521 2447
521 2461
521 2550
521 2637
521 3140
521 3514
521 3845
521 4603
522 789
522 893
522 1134
522 1410
522 1829
522 2105
522 2550
522 3160
522 3375
522 3639
522 4153
522 4780
522 4872
523 871
523 935
523 1147
523 1284
523 1324
523 1332
523 1398
523 1806
523 2517
523 3206
523 3309
523 3684
523 3737
523 4072
523 4129
523 4392
523 4535
523 4832
524 757
524 1907
524 2082
524 2827
524 3083
524 3179
524 4039
524 4227
524 4559
524 4886
525 553
525 775
525 1312
525 1428
525 1500
525 1605
525 1631
525 1666
525 1907
525 2644
525 3395
525 3481
525 3513
525 3726
525 4284
525 4842
525 4983
526 596
526 610
526 779
526 1090
526 1156
526 1352
526 1384
526 1574
526 1791
526 1949
526 2171
526 2434
526 2519
526 2545
526 2651
526 3163
526 3246
526 3528
526 3673
526 4021
526 4475
526 4675
526 4751
526 4850
526 4864
527 776
527 795
527 2182
527 2830
527 3049
527 3078
527 3215
527 3336
527 3509
528 817
528 1470
528 1709
528 1977
528 2338
528 3066
528 3711
529 865
529 1323
529 1374
529 1482
529 1682
529 2053
529 2636
529 3351
529 3713
529 4607
530 897
530 1621
530 2555
530 2901
530 3452
530 3574
530 3859
530 4203
530 4385
530 4845
531 618
531 1130
531 1307
531 1330
531 1537
531 1681
531 2261
531 2278
531 2327
531 2498
531 2657
531 2740
531 4226
531 4333
531 4421
531 4468
532 1585
532 1989
532 2133
532 2139
532 2146
532 2263
532 2428
532 2486
532 2492
532 2659
532 3721
532 4260
532 4281
532 4308
532 4472
532 4573
532 4652
532 4749
533 587
533 859
533 2829
533 3008
533 4185
533 4465
533 4481
533 4688
533 4699
533 4793
534 562
534 1237
534 1451
534 1455
534 2148
534 2514
534 2613
534 2846
534 2875
534 2883
534 3199
534 3404
534 4229
534 4460
534 4956
534 4961
535 599
535 924
535 1502
535 1936
535 2660
535 2706
535 2879
535 3305
535 3713
535 3723
535 3893
535 3927
535 4077
535 4600
535 4878
536 1202
536 2076
536 2081
536 2313
536 3091
536 3364
536 3431
536 4649
536 4667
536 4989
537 692
537 1402
537 1480
537 2394
537 2828
537 3015
537 3851
537 3983
537 4107
537 4695
537 4909
538 860
538 1507
538 1618
538 2175
538 2767
538 2966
538 3016
538 3032
538 3164
538 3387
538 3597
538 3664
538 3673
538 3893
538 4271
538 4426
538 4630
539 599
539 700
539 1032
539 1291
539 2208
539 3181
539 3718
539 4177
539 4200
539 4292
539 4998
540 581
540 658
540 1040
540 1200
540 1299
540 1720
540 1941
540 2217
540 2575
540 2715
540 2795
540 3816
540 4342
540 4597
540 4913
540 4935
540 4967
541 639
541 685
541 721
541 935
541 1156
541 1229
541 1302
541 1705
541 1996
541 2221
541 2255
541 2383
541 2791
541 3121
541 3144
541 3155
541 3531
541 3566
541 3583
541 3787
541 3951
541 4043
541 4063
541 4082
541 4152
541 4368
541 4448
541 4488
541 4717
542 744
542 1223
542 2584
542 2627
542 2717
542 3091
542 3136
542 4235
542 4921
543 567
543 1119
543 1268
543 1710
543 2592
543 2880
543 3072
543 3419
543 4368
543 4422
543 4618
544 722
544 1003
544 1126
544 1210
544 1658
544 2054
544 3272
544 3404
544 3496
544 3915
544 4136
544 4172
544 4209
545 1021
545 1324
545 1570
545 1920
545 2724
545 2838
545 3169
545 3608
545 3682
545 3749
545 3895
545 4672
546 710
546 813
546 1067
546 1341
546 1379
546 1413
546 1463
546 1534
546 1821
546 1826
546 2274
546 2773
546 2815
546 2819
546 3194
546 3223
546 3314
546 3494
546 3568
546 3700
546 3968
546 4375
546 4456
546 4724
546 4836
547 838
547 1317
547 1835
547 1883
547 2688
547 3177
547 4418
547 4472
548 751
548 1133
548 1435
548 1677
548 1718
548 2159
548 2663
548 2743
548 3001
548 3172
548 3665
548 3919
548 4585
549 970
549 1545
549 2299
549 2358
549 2677
549 3540
549 4002
549 4341
550 655
550 1279
550 1353
550 1439
550 1593
550 1691
550 1759
550 2268
550 3410
550 3823
550 3948
550 3972
550 4520
550 4565
550 4634
550 4762
550 4848
550 4916
550 4944
551 652
551 708
551 945
551 1026
551 1287
551 1439
551 1992
551 2004
551 2036
551 2212
551 2573
551 4878
552 985
552 1297
552 1386
552 1647
552 2202
552 2468
552 2523
552 2630
552 2856
552 3237
552 3523
552 3622
552 3854
552 4321
553 712
553 781
553 803
553 1762
553 2010
553 2240
553 2866
553 3006
553 3121
553 3385
553 3444
553 3907
553 4121
553 4306
553 4436
554 598
554 667
554 1082
554 1274
554 1309
554 1734
554 1888
554 2079
554 2322
554 2382
554 2685
554 2839
554 3046
554 3597
554 3882
554 3924
554 3931
554 4188
554 4300
554 4609
554 4809
554 4857
554 4966
554 4982
555 866
555 1648
555 1739
555 2307
555 2521
555 2734
555 2864
555 4164
555 4221
555 4324
555 4578
555 4724
556 1124
556 1336
556 2286
556 2345
556 2764
556 4259
556 4993
557 682
557 752
557 976
557 1119
557 1281
557 1438
557 1816
557 1885
557 1906
557 1991
557 2518
557 2627
557 2729
557 2847
557 2953
557 3005
557 3060
557 3218
557 3517
557 4129
557 4814
557 4988
558 652
558 720
558 781
558 1137
558 1676
558 2255
558 2639
558 3495
558 3596
558 3599
558 3848
558 3915
558 3946
558 4284
558 4561
559 1499
559 2079
559 2329
559 2485
559 2489
559 2706
559 3003
559 3418
559 4041
559 4219
559 4286
559 4446
560 625
560 816
560 1185
560 1834
560 2165
560 2268
560 3145
560 3370
560 3589
560 3635
560 4307
560 4317
561 900
561 1181
561 2723
561 3190
561 3506
561 3902
561 4100
562 1229
562 1237
562 2148
562 2875
562 2883
562 3199
562 3393
562 4263
562 4591
562 4666
563 1102
563 1377
563 1520
563 2391
563 2427
563 2867
563 2955
563 4035
563 4230
563 4889
563 4989
564 739
564 907
564 1798
564 1860
564 2008
564 2153
564 3093
564 3115
564 3220
564 3263
564 3409
564 4264
564 4564
564 4604
564 4813
565 934
565 1482
565 1676
565 1693
565 2136
565 2605
565 2633
565 2872
565 2945
565 2981
565 3160
565 3739
565 3811
565 3940
565 4517
565 4563
565 4593
565 4741
566 1114
566 1318
566 1650
566 2109
566 2136
566 2215
566 2675
566 2993
566 3294
566 3579
566 3972
567 620
567 654
567 828
567 1181
567 1252
567 1268
567 1368
567 1710
567 1745
567 1859
567 1941
567 1943
567 2009
567 2489
567 2592
567 2670
567 2685
567 2986
567 3072
567 3139
567 3506
567 3952
567 4294
567 4422
567 4520
567 4541
567 4672
567 4803
568 1001
568 1130
568 1457
568 1461
568 1612
568 1643
568 2115
568 2191
568 2953
568 3304
568 3430
568 3609
568 4028
568 4030
568 4352
568 4525
569 1276
569 1426
569 1485
569 1534
569 1591
569 1964
569 2343
569 2830
569 3346
569 3464
569 3466
569 3602
569 3668
569 4111
569 4596
569 4686
569 4778
569 4880
569 4954
570 799
570 890
570 924
570 1443
570 1759
570 2523
570 2665
570 2688
570 2815
570 3104
570 3324
570 3647
570 4025
570 4086
570 4204
570 4236
570 4547
571 1387
571 1533
571 1600
571 1961
571 2553
571 2996
571 3068
571 3687
571 3742
571 4583
571 4757
572 854
572 1231
572 1381
572 1422
572 1546
572 2090
572 2173
572 2439
572 2950
572 4163
572 4323
572 4498
572 4915
573 758
573 767
573 1223
573 1225
573 1373
573 1388
573 1434
573 1546
573 1633
573 2184
573 2276
573 2486
573 2858
573 2900
573 3167
573 3340
573 3923
573 4197
573 4681
573 4736
573 4759
573 4816
573 4889
573 4919
574 875
574 992
574 1611
574 1850
574 2347
574 2589
574 2731
574 2940
574 3949
574 4351
575 945
575 969
575 1145
575 1625
575 2338
575 2692
575 2711
575 2966
575 3002
575 3366
575 3778
575 3793
575 3829
575 4241
575 4376
575 4884
575 4943
575 4984
576 860
576 1064
576 1485
576 2052
576 2249
576 3198
576 4528
576 4815
576 4936
576 4995
577 830
577 2890
577 3099
577 3664
577 3917
578 911
578 1181
578 1587
578 1747
578 1767
578 3230
578 3407
578 3543
578 3593
578 4343
578 4492
578 4749
579 663
579 701
579 1469
579 1712
579 2429
579 2727
579 3488
579 3568
579 3588
579 4156
579 4402
580 803
580 853
580 1118
580 1187
580 1458
580 1884
580 1942
580 2937
580 3652
580 3727
580 3864
580 4306
580 4377
581 689
581 876
581 1057
581 1084
581 1396
581 1588
581 1755
581 1954
581 2474
581 2669
581 2871
581 3009
581 3122
581 3283
581 3386
581 4364
581 4555
581 4854
582 585
582 1069
582 1204
582 1533
582 1973
582 2036
582 2354
582 2519
582 2548
582 2610
582 2681
582 3009
582 3179
582 3315
582 3889
582 4427
582 4510
582 4530
582 4567
582 4799
583 614
583 1027
583 1159
583 1403
583 2005
583 2107
583 2128
583 2320
583 2550
583 2609
583 2774
583 2872
583 3319
583 4702
584 879
584 1039
584 1067
584 1099
584 1302
584 1420
584 1820
584 2141
584 2203
584 2296
584 2310
584 2621
584 2686
584 2810
584 3008
584 3147
584 3475
584 3533
584 4002
584 4004
584 4215
584 4360
585 848
585 949
585 1204
585 1570
585 1706
585 2049
585 3014
585 3324
585 4530
585 4567
585 4699
586 999
586 1304
586 1400
586 2595
586 2915
586 2980
586 3328
586 3389
586 3475
586 4308
587 693
587 1124
587 1179
587 3044
587 3168
587 3577
587 3635
587 3987
587 4635
588 2339
588 2449
588 3007
588 3488
588 4162
588 4195
589 688
589 748
589 1134
589 2063
589 2444
589 3110
589 3935
589 4823
589 4980
590 740
590 825
590 1220
590 1330
590 1474
590 1633
590 1887
590 1908
590 2268
590 2513
590 3271
590 3321
590 3687
590 3754
590 4013
590 4153
590 4204
590 4285
590 4987
591 1169
591 2071
591 2511
591 2601
591 3948
591 4298
591 4442
591 4469
592 799
592 1635
592 1858
592 2269
592 2386
592 2808
592 3005
592 3038
592 3186
592 3771
592 3918
592 4159
592 4346
592 4752
592 4846
593 776
593 833
593 1009
593 1418
593 1486
593 1506
593 1735
593 1945
593 2025
593 2324
593 3237
593 3354
593 3442
593 3718
593 4512
594 653
594 857
594 2206
594 2564
594 2598
594 2725
594 3105
594 3152
594 3664
594 3881
594 4183
595 989
595 1311
595 1632
595 1644
595 1678
595 1876
595 2045
595 2466
595 2502
595 2739
595 3302
595 3800
595 3882
595 4071
595 4221
595 4409
595 4606
595 4624
595 4982
596 756
596 1976
596 2746
596 2805
596 3056
596 3162
596 3884
596 4126
596 4307
596 4803
596 4864
597 652
597 1263
597 2052
597 3198
597 3783
597 4213
597 4815
597 4995
598 667
598 1026
598 1222
598 1806
598 1888
598 2382
598 3309
598 3406
598 3597
598 3931
599 778
599 840
599 989
599 1254
599 1631
599 1836
599 1971
599 2388
599 2403
599 2881
599 3138
599 3372
599 3403
599 3603
599 3801
599 3908
599 4044
599 4400
599 4567
599 4720
599 4838
599 4845
599 4949
600 788
600 1219
600 1342
600 1575
600 1775
600 1860
600 2372
600 2413
600 2454
600 2683
600 3349
600 3530
600 3534
600 4233
601 1035
601 1145
601 1502
601 1731
601 1811
601 2161
601 2229
601 2648
601 3447
601 3588
601 3794
601 3998
601 4240
601 4585
601 4666
602 902
602 1834
602 2390
602 2670
602 3173
602 3570
602 4842
602 4917
603 866
603 1142
603 1407
603 1686
603 1862
603 1984
603 2094
603 3103
603 3145
603 3501
603 3781
603 3903
603 4232
603 4437
603 4871
604 952
604 1600
604 1929
604 2728
604 2885
604 2905
604 3031
604 3521
604 3693
604 4132
604 4210
604 4691
604 4949
605 755
605 840
605 1298
605 1514
605 1985
605 2303
605 2726
605 3649
605 4412
605 4932
606 1312
606 1326
606 2108
606 2271
606 2649
606 2725
606 2883
606 3388
606 4171
606 4356
606 4690
606 4704
607 626
607 928
607 1523
607 1914
607 1983
607 3463
607 3614
607 3976
607 4158
607 4161
607 4212
607 4284
607 4494
607 4688
608 619
608 2012
608 3062
608 4104
608 4424
608 4686
608 4804
609 807
609 942
609 2022
609 2128
609 2176
609 2741
609 2973
609 3017
609 3022
609 4162
609 4412
610 698
610 1503
610 1839
610 2456
610 2632
610 3119
610 3298
610 3468
610 3842
610 4012
610 4188
610 4296
610 4516
610 4624
610 4940
611 689
611 696
611 936
611 1294
611 1495
611 1507
611 1756
611 1824
611 2192
611 2299
611 2531
611 2754
611 2954
611 3476
611 4587
611 4826
612 722
612 1003
612 1198
612 1236
612 1658
612 2012
612 2054
612 2123
612 2630
612 2768
612 3496
612 4026
612 4136
612 4143
612 4172
612 4427
612 4594
613 769
613 1418
613 1800
613 1815
613 2145
613 2492
613 2916
613 3068
613 3187
613 3934
613 4086
613 4471
613 4589
613 4737
613 4761
613 4772
614 726
614 786
614 967
614 969
614 976
614 1662
614 2125
614 2257
614 2395
614 2813
614 4499
615 798
615 1061
615 1206
615 1347
615 2025
615 2392
615 2507
615 2645
615 2857
615 2910
615 3016
615 3253
615 3507
615 3775
615 4092
616 813
616 1492
616 1783
616 1840
616 1894
616 2195
616 2735
616 2905
616 2925
616 3057
616 3097
616 3358
616 3873
616 4029
616 4436
616 4476
617 870
617 959
617 1989
617 2185
617 2657
617 2856
617 2946
617 3269
617 3447
617 3606
617 3692
617 4769
618 1175
618 1572
618 1610
618 1777
618 2174
618 2181
618 3338
618 3523
618 3936
618 4004
618 4242
618 4602
619 1245
619 1353
619 1358
619 2012
619 2564
619 2724
619 3062
619 4146
619 4804
620 908
620 1254
620 1513
620 2264
620 3825
621 694
621 840
621 1500
621 2047
621 2164
621 3169
621 3870
621 3937
621 4330
622 1169
622 1536
622 1736
622 1937
622 2315
622 2767
622 2805
622 2919
622 4756
622 4761
623 793
623 961
623 1132
623 1208
623 1714
623 1973
623 2259
623 2541
623 2897
623 2908
623 3632
623 4013
623 4453
623 4738
624 646
624 796
624 1542
624 1783
624 2180
624 2322
624 2799
624 3128
624 3282
624 3559
624 3620
624 3841
624 3963
624 4050
624 4064
624 4171
624 4182
624 4389
624 4922
625 1240
625 1339
625 2552
625 2782
625 3090
625 3113
625 3488
625 3562
625 3654
625 4005
625 4724
625 4940
625 4956
626 810
626 937
626 1396
626 2209
626 2460
626 3250
626 4436
626 4553
627 786
627 1186
627 1434
627 1807
627 2038
627 2911
627 3329
627 3495
627 3581
627 3943
627 4814
628 912
628 1066
628 1683
628 2047
628 2353
628 3347
628 3585
628 4481
628 4689
629 675
629 858
629 1038
629 1385
629 1833
629 1968
629 2090
629 2241
629 2390
629 2639
629 3709
629 3971
629 4141
629 4567
630 653
630 656
630 715
630 796
630 859
630 895
630 1195
630 1349
630 1380
630 1464
630 1542
630 1774
630 1862
630 2114
630 2225
630 2231
630 2362
630 2682
630 3200
630 3291
630 3398
630 3636
630 3750
630 3792
630 4245
630 4525
631 852
631 1134
631 1167
631 1377
631 2043
631 2271
631 2304
631 2679
631 3026
631 3046
631 3072
631 3465
631 3697
631 4419
631 4974
632 702
632 923
632 1108
632 2493
632 2559
632 3291
632 3614
632 4889
633 1393
633 1986
633 2061
633 2566
633 2594
633 4655
633 4938
634 949
634 1361
634 1548
634 2538
634 2794
634 3162
634 3168
634 3666
634 4147
634 4829
635 672
635 907
635 918
635 1964
635 2028
635 2159
635 2899
635 4356
636 1483
636 2207
636 2290
636 2831
636 2840
636 3763
636 4177
636 4690
636 4917
637 732
637 952
637 977
637 981
637 1195
637 1197
637 1544
637 2024
637 2713
637 2965
637 3456
637 4747
638 644
638 936
638 1433
638 1494
638 1934
638 2659
638 3465
638 3771
638 3792
638 3892
638 3986
638 4460
638 4703
638 4845
639 640
639 724
639 2312
639 2534
639 3349
639 4234
639 4413
639 4417
639 4479
639 4891
639 4985
640 724
640 1141
640 1328
640 1936
640 2008
640 2151
640 2289
640 2550
640 2583
640 2682
640 2789
640 2988
640 3009
640 3475
640 3499
640 3575
640 3634
640 3870
640 4020
640 4234
640 4287
640 4411
640 4417
640 4766
640 4811
640 4985
641 783
641 1620
641 1877
641 4155
641 4194
641 4467
641 4487
641 4695
641 4847
641 4995
642 1931
642 2167
642 2373
642 2534
642 2761
642 3436
642 3729
642 4252
642 4457
643 761
643 1079
643 1177
643 1833
643 2113
643 2744
643 2977
643 3198
643 3732
643 3814
643 3836
643 4382
643 4719
643 4920
643 4962
644 648
644 757
644 819
644 850
644 1035
644 1432
644 1445
644 1450
644 1487
644 1600
644 1715
644 2251
644 2306
644 2503
644 3057
644 3198
644 3202
644 3480
644 3519
644 3586
644 3721
644 4059
644 4131
644 4528
644 4544
644 4720
645 1433
645 1497
645 2482
645 2743
645 3186
645 3759
645 3961
645 4244
645 4748
645 4917
646 910
646 1022
646 1209
646 1251
646 1348
646 1352
646 1371
646 1570
646 1641
646 1675
646 2160
646 2358
646 2635
646 2852
646 3068
646 3260
646 3327
646 3354
646 3434
646 3490
646 3524
646 3707
646 4556
647 674
647 697
647 860
647 1037
647 1869
647 1880
647 2396
647 2835
647 2925
647 2929
647 2934
647 3528
647 4134
647 4186
647 4393
647 4567
647 4631
647 4637
647 4795
648 765
648 2119
648 3646
648 3678
648 3709
648 3784
648 3798
648 4119
648 4689
649 1243
649 1386
649 1462
649 1703
649 2027
649 3024
649 3378
649 3549
649 4206
649 4716
650 1355
650 1432
650 1435
650 2051
650 2104
650 2541
650 2635
650 2845
650 2915
650 3388
650 4491
650 4641
650 4876
651 1906
651 1935
651 2459
651 2736
651 2812
651 2960
651 3013
651 3119
651 3236
651 3619
651 4191
651 4573
651 4760
651 4781
651 4861
652 720
652 1058
652 1137
652 1395
652 1574
652 2255
652 2639
652 2903
652 2948
652 3115
652 3489
652 3596
652 3848
652 3899
652 4018
652 4424
652 4457
652 4557
652 4630
653 850
653 1589
653 1782
653 2092
653 3249
653 3646
653 3709
653 3798
653 4211
653 4228
653 4607
653 4689
654 852
654 1128
654 1204
654 1377
654 1775
654 2290
654 2727
654 3000
654 3252
654 3273
654 3333
654 3413
654 3617
654 3893
654 4120
654 4225
654 4303
654 4514
655 927
655 1232
655 3006
655 3019
655 3998
655 4220
655 4312
655 4865
656 715
656 1416
656 2035
656 2291
656 2362
656 2925
656 3200
656 3750
657 1194
657 1528
657 2050
657 2510
657 2712
657 2886
657 3502
657 3510
657 4364
658 918
658 1321
658 2184
658 2192
658 2533
658 2969
658 3990
658 4411
659 2375
659 2480
659 2785
659 2962
659 2992
659 3281
659 3697
659 3788
659 4379
659 4535
659 4759
660 792
660 1066
660 1211
660 1296
660 1427
660 1805
660 2353
660 3749
660 4405
660 4406
661 818
661 1092
661 1248
661 1292
661 2098
661 3593
661 3885
661 4177
661 4423
661 4670
662 823
662 926
662 1239
662 1290
662 1364
662 1415
662 1494
662 1725
662 2266
662 2395
662 2409
662 3095
662 3216
662 4101
662 4222
662 4241
662 4319
662 4361
662 4414
662 4438
662 4472
662 4513
662 4573
662 4636
662 4651
662 4745
662 4775
663 996
663 1197
663 1850
663 2429
663 2727
663 2870
663 3102
663 3152
663 3488
663 3918
663 4005
664 688
664 795
664 941
664 1354
664 1861
664 1866
664 2251
664 2757
664 3115
664 3562
664 3786
664 4011
664 4175
664 4656
665 687
665 1527
665 1836
665 2050
665 2185
665 2211
665 3584
665 3770
665 4070
665 4497
665 4917
666 698
666 700
666 1532
666 1607
666 1675
666 2004
666 2127
666 2410
666 2425
666 2466
666 3955
666 3962
666 4101
666 4189
666 4458
666 4840
667 1136
667 1309
667 1516
667 1888
667 2969
667 3597
667 3931
667 4518
668 802
668 1479
668 1965
668 2198
668 2619
668 3825
668 4057
668 4131
668 4168
668 4237
668 4317
668 4644
668 4662
668 4691
669 1787
669 1913
669 1926
669 2027
669 3319
669 3331
669 3752
669 3817
669 4404
670 1633
670 1736
670 2288
670 2478
670 3034
670 3380
670 3671
670 3677
670 3942
670 4895
671 825
671 850
671 1096
671 1375
671 1905
671 1974
671 1994
671 2207
671 2316
671 2403
671 2594
671 2660
671 3274
671 3669
671 3816
671 3853
671 3956
671 4224
671 4262
671 4447
671 4530
671 4855
672 713
672 1037
672 1480
672 1764
672 1941
672 2280
672 2700
672 2892
672 2978
672 3093
672 3192
672 3495
672 3519
672 3621
672 3723
672 3731
672 4441
672 4627
672 4674
672 4854
672 4881
672 4935
673 1443
673 1631
673 2486
673 2553
673 2942
673 3633
673 3730
673 3936
673 3999
673 4004
673 4602
674 1481
674 2207
674 2238
674 2484
674 2831
674 2840
674 2991
674 3159
674 4177
674 4325
674 4542
674 4638
675 984
675 1038
675 1385
675 1545
675 1668
675 2757
675 2967
675 3366
675 4141
675 4191
676 1515
676 2006
676 2350
676 2434
676 3159
676 3492
676 3628
676 4105
676 4192
676 4425
676 4511
676 4942
677 1036
677 1161
677 1215
677 1299
677 1344
677 1371
677 1803
677 2052
677 2074
677 2535
677 2599
677 2811
677 3015
677 3279
677 3310
677 3367
677 3718
677 4070
677 4080
677 4716
677 4744
678 1265
678 1409
678 1473
678 1619
678 1814
678 3163
678 3591
678 3770
678 4541
678 4813
678 4846
679 712
679 845
679 894
679 1106
679 1234
679 2287
679 3269
679 3433
679 3490
679 3858
679 4410
679 4994
680 1594
680 2298
680 3028
680 3534
680 3926
680 4057
680 4148
680 4306
681 1164
681 2192
681 2645
681 2915
681 3785
681 4240
681 4269
682 826
682 1226
682 1654
682 2150
682 2406
682 2518
682 3716
682 4179
682 4766
683 697
683 804
683 969
683 1120
683 1630
683 1682
683 2644
683 2798
683 3394
683 3444
683 3453
683 3559
683 4114
683 4560
683 4826
683 4886
684 1321
684 2536
684 3061
684 3082
684 3539
684 3573
684 4450
684 4764
685 1027
685 1455
685 1716
685 1767
685 1975
685 2724
685 4357
685 4377
685 4573
686 792
686 1157
686 1275
686 1817
686 2454
686 2640
686 2772
686 3051
686 3132
686 3335
686 3483
686 3500
686 4250
686 4523
686 4714
686 4752
687 710
687 769
687 795
687 900
687 946
687 1815
687 2054
687 2145
687 2170
687 2492
687 2673
687 2916
687 3793
687 3896
687 4086
687 4149
687 4761
688 1581
688 2444
688 2612
688 2928
688 2939
688 3119
688 3508
688 4020
688 4906
688 4980
689 2019
689 2083
689 2716
689 3531
689 3794
689 3990
689 4634
689 4750
689 4872
689 4973
690 1074
690 1155
690 1861
690 1902
690 1916
690 1925
690 2407
690 2687
690 3091
690 3278
690 3397
690 3540
690 4643
691 1188
691 1727
691 1949
691 3061
691 3138
691 3391
691 4177
691 4867
691 4893
692 724
692 965
692 1161
692 1515
692 1844
692 1966
692 3246
692 3393
692 3421
692 3425
692 4225
692 4433
693 776
693 1124
693 1163
693 1179
693 1454
693 1593
693 1605
693 1800
693 1993
693 2065
693 2460
693 2493
693 3077
693 3406
693 3523
693 3577
693 3676
693 3987
693 4132
693 4448
693 4491
693 4497
693 4541
693 4828
693 4951
694 786
694 1841
694 2047
694 2164
694 2271
694 2460
694 2603
694 2957
694 3231
694 3647
694 3657
694 4330
694 4840
695 1310
695 1552
695 1692
695 2417
695 3259
695 3748
695 4007
695 4129
695 4503
696 879
696 1507
696 2643
696 2663
696 2954
696 3517
696 4047
696 4684
696 4826
696 4860
697 912
697 969
697 1225
697 1297
697 1503
697 1682
697 1752
697 1762
697 2622
697 2767
697 2798
697 2848
697 2933
697 3427
697 3453
697 3559
697 3747
697 3928
697 4040
697 4147
697 4560
697 4645
697 4828
698 836
698 2396
698 2735
698 2791
698 3192
698 3292
698 3550
698 4410
699 1059
699 1569
699 1641
699 1647
699 1891
699 3636
699 4008
699 4418
700 1055
700 1532
700 1895
700 2127
700 2410
700 2620
700 3197
700 3955
700 4416
700 4458
700 4795
701 1004
701 1089
701 1174
701 1205
701 1478
701 1495
701 1525
701 1533
701 1699
701 2003
701 2086
701 2629
701 2798
701 2969
701 3071
701 3186
701 3347
701 3463
701 3580
701 3998
701 4655
701 4674
702 1030
702 1108
702 1162
702 1319
702 1592
702 1789
702 2012
702 2192
702 2372
702 2490
702 2493
702 3015
702 3718
702 3835
702 3999
702 4112
702 4680
702 4705
703 1245
703 1823
703 1847
703 1875
703 2323
703 3232
703 3679
703 4084
704 1758
704 2768
704 3004
704 3011
704 3454
704 3764
704 4029
704 4204
704 4265
704 4722
705 1304
705 1466
705 1623
705 2130
705 2690
705 2722
705 2741
705 3652
705 4370
705 4374
706 719
706 786
706 847
706 1069
706 1337
706 1549
706 1617
706 1670
706 1851
706 2053
706 2098
706 2429
706 2573
706 3213
706 3661
707 982
707 1064
707 1212
707 1361
707 1513
707 1776
707 1790
707 2096
707 3950
707 4376
707 4778
708 1225
708 1250
708 1284
708 1456
708 1705
708 1767
708 1881
708 2497
708 3295
708 3426
708 4620
708 4701
709 1703
709 2015
709 2526
709 2717
709 3066
709 3390
709 3621
709 3735
709 4823
710 813
710 2688
710 2815
710 3223
710 3364
710 3399
710 3557
710 3568
710 4440
710 4456
710 4562
711 957
711 1117
711 1517
711 1804
711 1946
711 2224
711 2525
711 2576
711 3044
711 3390
711 3646
711 4071
711 4765
712 746
712 812
712 845
712 894
712 942
712 951
712 1106
712 1332
712 1383
712 1405
712 1487
712 1553
712 1624
712 1854
712 2826
712 3433
712 3490
712 3542
712 4168
712 4480
712 4520
712 4736
712 4862
712 4990
713 948
713 1470
713 2224
713 3003
713 3175
713 3494
713 3728
713 3824
713 4279
713 4494
713 4640
713 4963
714 847
714 875
714 922
714 972
714 995
714 1337
714 1549
714 2938
714 3488
714 4026
714 4046
714 4578
715 1542
715 1739
715 3407
715 3750
715 4397
716 1119
716 3035
716 3093
716 3173
716 3747
716 4516
716 4519
716 4592
717 1672
717 1732
717 3552
717 3663
717 3806
717 4192
717 4664
717 4669
717 4937
717 4973
718 746
718 773
718 902
718 1052
718 1607
718 2837
718 3133
718 3191
718 3254
718 3437
718 3705
718 4191
718 4192
719 1670
719 1851
719 2038
719 2382
719 3263
719 3558
719 3711
719 4512
719 4689
719 4944
720 1058
720 1137
720 1317
720 1828
720 3489
720 3815
720 3931
720 4392
720 4630
721 900
721 1038
721 1080
721 1429
721 1453
721 1474
721 1611
721 1735
721 1844
721 1943
721 1957
721 1959
721 2219
721 2289
721 2767
721 2954
721 3375
721 3459
721 3689
721 3999
721 4095
721 4308
721 4378
721 4408
721 4739
721 4945
722 769
722 1003
722 1074
722 1658
722 2054
722 2082
722 2146
722 2409
722 2755
722 3342
722 3430
722 3446
722 3496
722 3658
722 3904
722 4041
722 4131
722 4136
723 922
723 938
723 1895
723 2872
723 2976
723 3562
723 3610
723 3954
723 4881
723 4939
724 1200
724 1427
724 1873
724 1918
724 2008
724 2289
724 3010
724 3024
724 3143
724 3226
724 3329
724 3426
724 3443
724 3777
724 3866
724 3870
724 3994
724 4110
724 4145
724 4234
724 4287
724 4389
724 4417
724 4573
724 4744
724 4985
725 790
725 833
725 1128
725 1206
725 1242
725 1445
725 1517
725 1584
725 1779
725 2100
725 2189
725 2426
725 2632
725 2820
725 3067
725 3094
725 3373
725 3820
725 4212
725 4224
725 4443
725 4477
725 4553
725 4593
725 4816
726 858
726 885
726 1197
726 1312
726 1651
726 1812
726 2001
726 2105
726 2166
726 2693
726 2753
726 3585
726 3818
726 4595
727 1100
727 1907
727 2312
727 2827
727 3179
727 3977
727 4886
728 922
728 938
728 1128
728 2117
728 2937
728 3001
728 3069
728 3777
728 3922
728 4497
728 4982
729 983
729 1045
729 1633
729 1837
729 2961
729 3004
729 3013
729 3055
729 3071
729 3332
729 3565
729 4100
729 4342
729 4469
730 1423
730 1469
730 1688
730 1823
730 2324
730 3206
730 3222
730 3370
730 3409
730 3833
730 3899
730 4254
731 1044
731 2201
731 2753
731 2820
731 3311
731 3350
731 3561
731 3899
731 4150
731 4181
731 4817
732 926
732 1121
732 1195
732 1197
732 1334
732 1493
732 1544
732 1582
732 1783
732 1881
732 1968
732 2268
732 2480
732 3020
732 3046
732 3129
732 3170
732 3259
732 3456
732 3518
732 3668
732 3721
732 4191
732 4725
732 4747
733 1488
733 1567
733 1786
733 2040
733 2495
733 3022
733 3156
733 3810
733 4336
733 4905
734 1602
734 2034
734 2678
734 2817
734 3585
734 3952
734 4055
734 4262
734 4461
734 4462
734 4790
735 907
735 1751
735 1895
735 2183
735 2534
735 2756
735 2993
735 3508
735 3817
735 4290
735 4436
735 4446
735 4903
735 4910
736 1126
736 1806
736 2178
736 2434
736 3085
736 3234
736 3759
736 3875
736 4801
737 1199
737 2279
737 3292
737 4120
737 4420
737 4633
737 4952
738 756
738 775
738 799
738 882
738 1713
738 3651
738 3710
738 4066
738 4355
738 4571
739 987
739 1060
739 1165
739 1856
739 2242
739 2306
739 2571
739 3341
739 3797
739 3910
739 4622
740 877
740 994
740 1003
740 1446
740 1453
740 1554
740 1669
740 1719
740 1737
740 2106
740 2247
740 2296
740 2439
740 2979
740 3684
740 4069
740 4128
740 4469
740 4512
740 4847
740 4923
740 4964
741 916
741 1138
741 1201
741 1222
741 1548
741 1603
741 1782
741 2260
741 2660
741 2682
741 3287
741 3339
741 3530
741 3710
741 3843
741 4049
741 4138
741 4739
742 1828
742 2375
742 2480
742 2537
742 2785
742 2931
742 2969
742 2970
742 2992
742 4379
743 957
743 1247
743 1349
743 1785
743 2497
743 2669
743 2897
743 2925
743 2936
743 3331
743 3930
743 3972
743 4030
743 4074
743 4290
744 1044
744 2538
744 3168
744 3267
744 4037
744 4386
745 1218
745 1238
745 1387
745 1430
745 1545
745 1561
745 1611
745 1751
745 1863
745 1927
745 2287
745 2359
745 2591
745 2650
745 2985
745 3499
745 3634
745 3811
745 4286
745 4912
745 4952
745 4990
746 1168
746 1538
746 1824
746 2729
746 2837
746 2900
746 3119
746 3193
746 3254
746 3437
746 3705
746 3770
746 4198
746 4524
746 4745
747 809
747 1499
747 1531
747 2631
747 3128
747 3360
747 3394
747 4618
748 1025
748 1282
748 2129
748 2444
748 2928
748 4020
748 4258
748 4906
749 1249
749 2907
749 3215
749 3332
749 4207
749 4356
749 4545
749 4897
750 754
750 793
750 1501
750 1871
750 2169
750 3139
750 4076
750 4375
750 4597
750 4699
750 4948
751 942
751 1057
751 1733
751 1988
751 2008
751 2095
751 2228
751 2590
751 2655
751 2770
751 2894
751 2902
751 3051
751 3198
751 3227
751 3258
751 3930
751 4036
751 4293
751 4362
751 4409
751 4450
751 4842
752 1940
752 1948
752 2581
752 2627
752 2847
752 3005
752 3218
752 3429
752 4129
752 4470
753 982
753 997
753 1006
753 1776
753 2662
753 4293
753 4611
754 931
754 1073
754 1200
754 1350
754 1520
754 1738
754 1848
754 1957
754 2093
754 2190
754 2234
754 2400
754 2639
754 2899
754 2940
754 3089
754 3091
754 3703
754 4078
754 4492
754 4541
754 4675
754 4730
754 4850
754 4863
755 840
755 1298
755 1387
755 1408
755 2084
755 2303
755 2726
755 2757
755 3293
755 3304
755 3569
755 3652
756 1118
756 1136
756 1232
756 2746
756 3056
756 3586
756 3884
756 4033
756 4126
756 4550
756 4828
757 1353
757 1658
757 2011
757 2636
757 2773
757 3571
757 3665
757 3981
757 4114
757 4619
757 4691
758 1262
758 1558
758 2786
758 3310
758 3626
758 3796
758 4096
759 1176
759 1269
759 1759
759 2548
759 2635
759 3252
759 3332
759 3351
759 3928
759 4245
759 4741
760 881
760 960
760 1083
760 1254
760 1516
760 1674
760 1790
760 1849
760 2322
760 2785
760 3196
760 3593
760 3778
760 4365
760 4515
760 4557
760 4652
760 4788
761 882
761 1668
761 1833
761 1946
761 2113
761 2537
761 2977
761 3398
761 3608
761 3732
761 3737
761 3812
761 3814
761 3836
761 3854
761 4020
761 4651
761 4699
762 960
762 994
762 1024
762 1188
762 1301
762 1353
762 1636
762 3401
762 3571
762 3665
762 3981
762 4085
762 4619
762 4806
762 4811
763 1716
763 1744
763 1778
763 2102
763 2514
763 2583
763 2868
763 4640
763 4898
763 4901
763 4907
764 998
764 1097
764 1522
764 1600
764 2331
764 2418
764 2705
764 3077
764 3295
764 3482
764 3937
764 4104
764 4332
764 4541
764 4680
764 4791
765 902
765 963
765 973
765 1021
765 1076
765 1129
765 1459
765 1532
765 1834
765 2231
765 2237
765 2939
765 2947
765 2997
765 3171
765 3502
765 3623
765 3775
765 3789
765 3804
765 3813
765 4415
765 4638
765 4642
765 4673
765 4833
766 1689
766 1842
766 1863
766 1930
766 2555
766 2636
766 3181
766 3696
766 3852
766 3859
766 4041
766 4301
766 4359
766 4765
766 4807
766 4818
767 921
767 1143
767 1286
767 1323
767 1823
767 1889
767 2496
767 2592
767 2907
767 3306
767 3393
767 3796
767 3834
767 4129
767 4270
767 4341
767 4625
767 4719
767 4755
768 1759
768 1926
768 2458
768 2721
768 2906
768 3268
768 3381
768 3482
768 3584
768 4081
768 4166
768 4850
768 4890
769 823
769 1015
769 1058
769 1145
769 1418
769 1504
769 1573
769 1653
769 1801
769 1815
769 2170
769 2223
769 2348
769 2673
769 2707
769 2916
769 2980
769 3068
769 3324
769 3464
769 3679
769 3768
769 3883
769 3933
769 4035
769 4127
769 4133
769 4149
769 4309
769 4397
769 4445
769 4659
769 4747
769 4805
769 4893
769 4992
770 781
770 972
770 1060
770 1063
770 1425
770 1683
770 2444
770 2563
770 2866
770 3121
770 3863
770 3879
771 983
771 1134
771 1375
771 1378
771 1389
771 1462
771 2512
771 2824
771 2970
771 3215
771 3465
771 3674
771 3933
771 4826
772 2855
772 4255
772 4487
772 4680
772 4847
773 816
773 1081
773 1190
773 1752
773 1948
773 3286
773 3503
773 3668
773 3852
773 3878
773 4453
773 4806
773 4870
773 4937
774 864
774 883
774 1194
774 1818
774 1871
774 2284
774 2478
774 2827
774 3284
774 4241
774 4652
774 4974
775 1291
775 1713
775 3129
775 3651
775 3911
775 4166
776 1112
776 1161
776 1291
776 1314
776 1504
776 1561
776 1677
776 1799
776 1814
776 1827
776 1845
776 2317
776 2421
776 2434
776 2935
776 2972
776 3045
776 3343
776 3847
776 4202
776 4448
776 4519
776 4818
776 4917
777 889
777 1114
777 1274
777 1329
777 1341
777 1545
777 1705
777 1792
777 1874
777 2031
777 2163
777 2479
777 2614
777 2834
777 3009
777 3109
777 3477
777 3823
777 4403
777 4577
777 4691
777 4771
777 4780
778 1971
778 3208
778 3465
778 4720
778 4838
779 1377
779 1660
779 2545
779 2763
779 2929
779 3163
779 3681
779 4293
780 812
780 832
780 1090
780 1619
780 1677
780 1800
780 1884
780 2080
780 2457
780 3071
780 3594
780 3625
780 3637
780 3718
780 4369
780 4454
780 4669
781 2866
781 3121
781 3620
781 3748
781 3879
781 4068
781 4551
782 920
782 1176
782 1955
782 2045
782 2213
782 2582
782 2589
782 2852
782 4220
782 4461
783 962
783 1019
783 1420
783 1572
783 1894
783 1930
783 2040
783 2467
783 3399
783 4157
784 1154
784 1346
784 1400
784 1444
784 2200
784 2412
784 2931
784 3088
784 4001
784 4088
785 1607
785 2124
785 2168
785 2568
785 2710
785 2755
785 2887
785 3065
785 3091
785 3395
785 3451
785 3607
785 3798
785 3804
785 3892
785 4486
785 4702
786 819
786 967
786 976
786 981
786 1050
786 1070
786 1532
786 1543
786 1662
786 1663
786 2047
786 2306
786 2462
786 2813
786 3706
786 3760
786 3967
786 3985
786 4189
786 4358
786 4498
786 4499
786 4707
787 1179
787 1932
787 1938
787 2173
787 2780
787 2842
787 2911
787 2924
787 4082
788 1342
788 1407
788 1860
788 1886
788 2391
788 2454
788 2961
788 3020
788 3314
788 3473
788 3534
788 3980
789 893
789 1134
789 1241
789 1358
789 2130
789 2493
789 2557
789 2874
789 3472
789 3604
789 4153
789 4910
790 800
790 1107
790 1445
790 1517
790 1584
790 1607
790 1663
790 1805
790 2380
790 2417
790 2480
790 2502
790 3067
790 3412
790 3525
790 3634
790 3820
790 4096
790 4122
790 4174
790 4256
790 4428
790 4477
790 4584
790 4816
790 4918
791 830
791 972
791 1094
791 1166
791 1368
791 2329
791 2482
791 3074
792 1260
792 1312
792 1620
792 2475
792 2696
792 2816
792 2867
792 2944
792 2989
792 3271
792 3278
792 3434
792 3622
792 3869
792 3952
792 4456
792 4626
792 4656
793 1265
793 1414
793 1476
793 1859
793 2169
793 2434
793 2617
793 2751
793 2928
793 3093
793 3139
793 3353
793 3540
793 3786
793 4699
793 4948
793 4986
794 1358
794 1809
794 3057
794 3640
794 3915
794 3947
794 3959
794 4259
794 4525
794 4902
795 1246
795 1289
795 1354
795 1452
795 1842
795 1866
795 2404
795 3580
795 4011
795 4175
795 4300
795 4656
796 1177
796 1833
796 1898
796 2054
796 2113
796 2977
796 3057
796 3732
796 4842
796 4902
797 975
797 1062
797 1786
797 2006
797 2311
797 2365
797 2430
797 2550
797 2573
797 2586
797 2686
797 2898
797 3129
797 3183
797 3278
797 3297
797 3573
797 3676
797 3993
797 4274
797 4722
797 4890
798 825
798 1226
798 1467
798 1561
798 1585
798 1813
798 1830
798 2292
798 2391
798 2445
798 2620
798 3388
798 3978
798 4605
799 890
799 1259
799 2523
799 2665
799 3104
799 3324
799 3336
799 3659
799 3666
799 3867
799 4547
799 4827
799 4876
800 1319
800 1383
800 1581
800 1797
800 2958
800 3266
800 3368
800 3571
800 4302
800 4783
801 910
801 1492
801 1824
801 3832
801 4507
801 4613
801 4645
801 4774
802 1381
802 3230
802 3277
802 3363
802 3715
802 3926
802 4057
802 4394
802 4587
802 4661
803 1042
803 1118
803 1187
803 1354
803 1458
803 1464
803 1590
803 1628
803 1685
803 1710
803 1807
803 1878
803 1884
803 2019
803 2169
803 2298
803 2668
803 2937
803 3059
803 3076
803 3173
803 3186
803 3291
803 3432
803 3570
803 3573
803 3605
803 3643
803 3727
803 3730
803 3749
803 3782
803 3813
803 3968
803 4148
803 4240
803 4413
803 4561
803 4593
803 4658
803 4694
804 1087
804 1173
804 1680
804 2430
804 2542
804 3345
804 4837
805 935
805 2091
805 2136
805 2214
805 3440
805 3537
805 4258
805 4451
806 1622
806 2034
806 2661
806 3022
806 3562
806 3748
806 4399
806 4532
806 4737
807 1176
807 1870
807 2635
807 3178
807 3393
807 3661
807 3758
807 3928
808 923
808 1249
808 1849
808 1935
808 2215
808 2441
808 2570
808 2969
808 3102
808 3525
808 3610
808 3626
808 4317
808 4353
808 4997
809 1109
809 1366
809 1532
809 2555
809 3189
809 3318
809 3585
809 3784
809 4416
809 4787
809 4924
809 4989
810 2016
810 2489
810 2670
810 2718
810 3250
810 3289
810 3425
810 3913
810 4553
811 1781
811 2327
811 2428
811 2498
811 2740
811 3349
811 3496
811 4226
811 4333
811 4468
812 1134
812 2872
812 3165
812 3478
812 4518
812 4744
812 4964
813 1047
813 1238
813 1626
813 2032
813 2815
813 3022
813 3223
813 3568
813 3713
813 3835
813 4356
813 4456
813 4803
814 909
814 971
814 1952
814 2412
814 2751
814 2894
814 3548
814 4065
814 4252
814 4871
815 2028
815 2436
815 3036
815 3602
815 3875
815 4084
815 4125
815 4263
815 4427
815 4441
815 4572
816 1136
816 1185
816 1403
816 1563
816 2009
816 2033
816 2268
816 2514
816 2611
816 2906
816 3156
816 3370
816 4317
816 4717
816 4805
816 4871
817 974
817 1362
817 1675
817 1977
817 2015
817 2529
817 3066
817 3118
817 3352
817 3522
817 3876
817 4823
818 1092
818 1122
818 1199
818 1292
818 1519
818 1660
818 1995
818 2418
818 2446
818 2711
818 2948
818 3081
818 3593
818 3879
818 4670
818 4755
818 4989
819 1136
819 1392
819 1453
819 2203
819 2746
819 3056
819 3254
819 3595
819 3884
819 3977
819 4126
819 4712
820 925
820 1347
820 1489
820 1590
820 2274
820 2436
820 2482
820 2916
820 3036
820 3373
820 3457
820 3793
820 4137
820 4572
820 4992
821 1122
821 1501
821 2318
821 2567
821 2591
821 2976
821 3102
821 3761
821 4258
821 4442
821 4498
822 876
822 1227
822 1264
822 1540
822 1561
822 2309
822 2404
822 2451
822 3035
822 3127
822 3287
822 3374
822 4004
822 4067
822 4200
822 4371
822 4986
823 1146
823 1494
823 1832
823 2007
823 2378
823 2398
823 3095
823 3255
823 3270
823 3284
823 3763
823 4319
823 4351
823 4361
823 4414
823 4681
824 835
824 993
824 1207
824 1604
824 1669
824 1747
824 1841
824 1931
824 2332
824 2832
824 2922
824 2935
824 3204
824 3302
824 3311
824 3700
824 3817
824 4127
824 4322
824 4861
824 4896
824 4992
825 1631
825 2069
825 3982
825 4464
825 4579
826 922
826 1226
826 1488
826 2347
826 2518
826 3599
826 4444
827 970
827 1202
827 2039
827 2129
827 2365
827 2489
827 2711
827 3078
827 3143
827 3247
827 3939
827 4970
828 926
828 1025
828 1569
828 1581
828 1674
828 2435
828 2585
828 2936
828 3116
828 3209
828 3659
828 4135
828 4715
828 4733
829 854
829 960
829 1035
829 1164
829 2127
829 2272
829 2654
829 2801
829 2823
829 2824
829 3048
829 3101
829 3579
829 3781
829 3920
829 4235
829 4756
829 4859
829 4903
830 1401
830 1828
830 2321
830 2367
830 2502
830 2672
830 2677
830 3055
830 3099
830 3274
830 3323
830 3466
830 3587
830 3741
830 3769
830 4429
830 4654
830 4902
830 4931
830 4935
831 838
831 843
831 855
831 1209
831 1818
831 1850
831 1959
831 2197
831 2508
831 2567
831 2571
831 3282
831 3546
831 4812
831 4885
832 911
832 1090
832 1122
832 1186
832 1790
832 2457
832 2493
832 2732
832 2852
832 3071
832 3625
832 3637
832 4408
832 4454
832 4669
832 4977
833 1175
833 1305
833 1623
833 2023
833 2596
833 4060
833 4189
833 4401
833 4807
833 4891
833 4912
834 1175
834 1289
834 1634
834 2083
834 2716
834 3214
834 3802
834 3876
834 3982
834 4059
834 4634
834 4750
834 4782
834 4973
835 2847
835 3177
835 3496
835 3668
835 3826
835 3867
835 4048
835 4366
835 4399
835 4477
835 4700
835 4726
836 1267
836 1403
836 2372
836 2667
836 2735
836 4410
836 4549
837 1377
837 1397
837 1963
837 2825
837 2841
837 2945
837 3487
837 4041
837 4782
838 937
838 1829
838 2241
838 2869
838 3244
838 3332
838 3552
838 3873
838 3898
838 4444
838 4584
839 946
839 1033
839 1550
839 1638
839 1669
839 1900
839 1979
839 2024
839 2029
839 2136
839 2377
839 2466
839 2737
839 3058
839 3771
839 3889
839 4009
839 4191
839 4386
839 4540
839 4688
839 4766
839 4950
840 860
840 1026
840 1223
840 1408
840 1606
840 2072
840 2198
840 2303
840 2364
840 2726
840 3936
840 4993
841 2464
841 2663
841 3090
841 3099
841 3389
841 3505
841 3809
841 3893
841 4209
841 4275
841 4403
841 4525
842 1126
842 1416
842 1430
842 1858
842 2178
842 2434
842 2626
842 2894
842 3085
842 3142
842 3940
842 4146
842 4473
842 4635
842 4801
843 1043
843 1286
843 1399
843 1857
843 2312
843 2686
843 2855
843 3201
843 3323
843 3778
843 3921
843 3961
843 4161
843 4202
843 4633
843 4707
843 4789
844 962
844 998
844 1121
844 1286
844 1719
844 1724
844 2109
844 2297
844 2557
844 2559
844 2628
844 3088
844 3252
844 4264
844 4309
844 4724
844 4731
844 4824
844 4962
845 894
845 1106
845 1394
845 1399
845 1510
845 1624
845 1808
845 2274
845 2361
845 2385
845 2421
845 3199
845 3361
845 3433
845 3490
845 3732
845 4223
845 4284
845 4480
845 4736
845 4879
846 870
846 888
846 1175
846 1789
846 3532
846 3754
846 3759
846 4517
846 4520
846 4783
847 1255
847 1337
847 1403
847 2204
847 3558
847 3804
847 4606
847 4993
848 1156
848 1177
848 1469
848 1707
848 1799
848 2713
848 2838
848 3618
848 3821
848 4105
848 4151
848 4280
848 4578
848 4725
848 4765
849 1104
849 1600
849 1688
849 1864
849 2155
849 2247
849 2457
849 2694
849 2973
849 3096
849 3328
849 3715
849 4276
849 4344
849 4766
849 4989
850 935
850 1600
850 1771
850 1782
850 2015
850 2118
850 2222
850 2257
850 2339
850 2557
850 2633
850 2638
850 2763
850 3005
850 3088
850 3261
850 4034
850 4043
850 4421
850 4699
850 4730
850 4743
850 4848
850 4918
851 1369
851 1581
851 1797
851 2063
851 2206
851 3113
851 3152
851 3581
851 3653
851 3751
851 4302
851 4700
851 4783
852 2315
852 2679
852 2958
852 3046
852 3841
852 4736
853 1164
853 1683
853 2295
853 3469
853 3488
853 3599
853 3721
853 3897
853 4802
853 4913
853 4954
854 1010
854 1114
854 1580
854 1696
854 1701
854 1743
854 2120
854 2297
854 2327
854 2458
854 2690
854 2835
854 3187
854 3287
854 3422
854 3682
854 3696
854 3785
854 4123
854 4391
854 4825
855 950
855 1086
855 1100
855 1294
855 1440
855 1493
855 1650
855 1970
855 2021
855 2382
855 2558
855 2845
855 2930
855 3116
855 3223
855 3712
855 3868
855 3950
855 3973
855 3989
855 4169
855 4218
855 4559
855 4959
856 979
856 1454
856 1745
856 2043
856 2047
856 2421
856 2797
856 2812
856 2888
856 2979
856 3136
856 3148
856 4279
857 1127
857 1876
857 2090
857 2102
857 2206
857 2592
857 2598
857 3143
857 3687
857 3881
857 3913
857 4135
857 4183
858 2001
858 2105
858 2753
858 2929
858 3063
858 3818
858 4518
858 4935
859 1248
859 1422
859 2461
859 2829
859 3097
859 3363
859 4394
859 4793
860 952
860 1880
860 1886
860 2126
860 2159
860 2219
860 2452
860 2925
860 2929
860 3020
860 3235
860 3718
860 4186
860 4338
860 4393
860 4631
860 4751
860 4773
860 4795
860 4859
860 4991
861 1122
861 1195
861 1299
861 2514
861 3141
861 3892
861 4117
861 4506
861 4538
861 4657
861 4723
862 1183
862 1317
862 1494
862 1529
862 1674
862 1883
862 2249
862 2285
862 2329
862 2688
862 3177
862 3564
862 4099
862 4152
862 4180
862 4322
862 4405
863 1007
863 1070
863 1144
863 1687
863 1760
863 1769
863 1827
863 1854
863 1923
863 2234
863 2290
863 2333
863 2667
863 2950
863 3051
863 3323
863 3471
863 3639
863 3858
863 3899
863 3928
863 4051
863 4134
863 4164
863 4203
863 4266
863 4501
863 4833
864 1842
864 1863
864 2061
864 2169
864 2555
864 3852
864 3859
864 4359
864 4890
865 1049
865 1094
865 1323
865 1370
865 1835
865 2170
865 2331
865 2636
865 2863
865 3250
865 3742
865 4607
865 4807
865 4849
866 1398
866 2718
866 3123
866 3386
866 3715
866 4266
866 4490
867 1997
867 2328
867 2391
867 2923
867 3142
867 3856
867 4428
867 4920
868 1100
868 1110
868 1381
868 2051
868 2652
868 3135
868 3279
868 3289
868 4846
868 4858
869 1324
869 1570
869 1920
869 2049
869 2091
869 2235
869 2241
869 2838
869 2966
869 3169
869 3199
869 3608
869 3895
869 4062
869 4120
869 4637
869 4856
870 1178
870 1715
870 1789
870 1973
870 2121
870 2545
870 3532
870 3617
870 4074
870 4159
870 4521
870 4829
871 935
871 1240
871 1245
871 1806
871 2100
871 2517
871 2626
871 3125
871 3199
871 3339
871 3737
871 3895
871 4072
871 4392
871 4535
871 4714
872 1456
872 2612
872 2724
872 2768
872 3040
872 3063
872 3588
872 4104
872 4680
872 4791
873 1081
873 1105
873 1183
873 1257
873 2449
873 2893
873 2925
873 3450
873 3479
873 3525
873 3529
873 3623
873 3913
873 4039
873 4682
873 4891
874 1225
874 1242
874 1393
874 1446
874 1495
874 1564
874 1615
874 1663
874 2135
874 2448
874 2943
874 3279
874 3480
874 3683
874 3898
874 3985
874 4483
874 4490
874 4938
875 1111
875 1162
875 1292
875 1395
875 1536
875 2135
875 2561
875 4100
875 4441
875 4552
875 4635
875 4672
875 4688
876 948
876 1286
876 2474
876 2669
876 2808
876 3358
876 3386
876 3638
876 3776
876 4463
876 4635
877 911
877 919
877 985
877 1170
877 1372
877 1453
877 1524
877 1669
877 1737
877 2086
877 2106
877 2296
877 2598
877 3201
877 3346
877 4068
877 4069
877 4072
877 4674
877 4964
878 903
878 959
878 1352
878 1476
878 2841
878 3158
878 3410
878 3890
878 3923
878 4765
879 2011
879 2033
879 2514
879 2934
879 3319
879 3583
879 4869
879 4890
880 1188
880 1281
880 1851
880 2042
880 2283
880 2445
880 3681
880 4470
881 960
881 1082
881 1254
881 1508
881 1516
881 1529
881 1674
881 4788
882 1195
882 1386
882 1713
882 2198
882 3258
882 3547
882 3651
882 3737
882 4026
882 4372
882 4452
882 4520
882 4571
882 4692
883 1346
883 1498
883 1702
883 1708
883 1812
883 1819
883 2592
883 2897
883 3037
883 3117
883 3190
883 3291
883 3453
883 3636
883 4148
884 1040
884 1213
884 1301
884 1632
884 1691
884 1721
884 1756
884 1919
884 1933
884 2097
884 2234
884 2260
884 2601
884 3114
884 3395
884 3458
884 3512
884 3782
884 3805
884 3931
884 4216
884 4258
884 4397
884 4479
884 4562
884 4688
884 4741
884 4835
884 4979
885 955
885 1729
885 1895
885 2101
885 2124
885 2524
885 2692
885 3099
885 3157
885 3599
885 3819
885 4544
885 4576
885 4998
886 1113
886 1300
886 1651
886 2394
886 3470
886 3628
886 3641
886 4014
886 4027
886 4528
886 4896
887 1587
887 2304
887 2467
887 3587
887 3796
887 4344
887 4729
888 1178
888 2121
888 3198
888 3313
888 3617
888 4285
888 4688
889 1891
889 2031
889 2119
889 2287
889 2675
889 2834
889 3109
889 3477
889 4241
889 4255
889 4577
889 4771
890 1443
890 2012
890 2665
890 3324
890 3687
890 4104
890 4139
891 1837
891 3297
891 3304
891 3333
891 3450
891 3694
891 4087
891 4157
891 4712
892 913
892 1393
892 1687
892 1969
892 1986
892 2059
892 2255
892 2617
892 4663
893 1134
893 1357
893 1410
893 1562
893 2043
893 2357
893 2396
893 2493
893 2911
893 2983
893 3094
893 3310
893 3472
893 4260
893 4502
893 4872
894 915
894 1106
894 2972
894 3490
894 3820
894 4384
894 4807
894 4873
895 1349
895 1576
895 1671
895 2105
895 2285
895 2362
895 2948
895 3200
895 3495
895 3710
895 3750
895 4238
895 4278
895 4429
895 4540
895 4890
896 963
896 981
896 1682
896 2071
896 2838
896 2906
896 3112
896 3793
896 3851
896 4713
896 4854
897 1621
897 3117
897 4032
897 4757
897 4806
897 4845
898 1654
898 1927
898 2311
898 2651
898 3161
898 3589
898 3748
898 4057
898 4496
898 4587
898 4801
898 4928
899 1918
899 1922
899 2033
899 2079
899 2464
899 2737
899 2765
899 3963
899 3992
899 4263
899 4351
899 4448
900 1253
900 1490
900 1552
900 1669
900 1917
900 1962
900 2060
900 2132
900 2134
900 2189
900 2192
900 2281
900 2359
900 2641
900 2660
900 2912
900 2981
900 3080
900 3355
900 3375
900 3390
900 3665
900 3732
900 4056
900 4134
900 4187
901 2243
901 2279
901 2755
901 3860
901 3977
901 4120
901 4369
901 4633
901 4776
902 910
902 1042
902 1117
902 1118
902 1187
902 1317
902 1319
902 1458
902 1590
902 1591
902 1628
902 1638
902 1656
902 1807
902 1837
902 1865
902 1880
902 1884
902 2209
902 2298
902 2435
902 2574
902 2668
902 2671
902 2847
902 2963
902 3059
902 3379
902 3402
902 3570
902 3643
902 3727
902 3749
902 3758
902 3813
902 3868
902 3968
902 4561
902 4582
902 4847
902 4907
903 953
903 1194
903 1342
903 2019
903 2250
903 2304
903 3732
903 3736
903 3796
903 4505
903 4711
903 4719
903 4946
904 916
904 1449
904 1605
904 2098
904 2236
904 2388
904 2642
904 2687
904 2823
904 3744
904 4295
904 4965
905 1393
905 1908
905 2061
905 2107
905 3035
905 3760
905 3815
905 4663
905 4741
906 1047
906 1976
906 1985
906 1997
906 2044
906 2123
906 2230
906 2260
906 2589
906 2935
906 3257
906 3654
906 4287
906 4451
906 4609
906 4845
907 1027
907 1151
907 1468
907 1573
907 1671
907 2233
907 2664
907 2881
907 3460
907 3569
907 4053
907 4070
908 1513
908 1550
908 1989
908 2349
908 3071
908 3497
908 3825
908 4370
909 1447
909 1600
909 1841
909 2121
909 2173
909 2295
909 2324
909 2559
909 2750
909 2981
909 2994
909 3024
909 4117
909 4144
909 4601
909 4853
910 1042
910 1117
910 1187
910 1195
910 1205
910 1467
910 1590
910 1807
910 2234
910 2298
910 2458
910 2524
910 3173
910 3570
910 3643
910 3749
910 4194
910 4300
910 4789
911 1035
911 1181
911 1253
911 1504
911 1587
911 1767
911 1782
911 2881
911 3127
911 3178
911 3185
911 3217
911 3235
911 3284
911 3407
911 3433
911 3543
911 3719
911 3766
911 4026
911 4180
911 4327
911 4876
912 937
912 1981
912 2017
912 3589
912 3626
912 3888
912 4074
912 4275
912 4376
912 4583
913 973
913 1085
913 1238
913 1430
913 1706
913 2064
913 2192
913 2254
913 2276
913 2972
913 3174
913 3223
913 3391
913 4086
914 1033
914 1197
914 1822
914 1877
914 1934
914 3088
914 3599
914 3709
914 4381
914 4386
914 4487
914 4695
914 4847
915 1107
915 1661
915 1679
915 1721
915 1905
915 2524
915 2560
915 3014
915 3438
915 3862
916 994
916 1237
916 1250
916 2582
916 2705
916 3020
916 3138
916 3334
916 3452
916 3873
916 4090
916 4879
917 1212
917 1232
917 1343
917 1673
917 2107
917 2260
917 2569
917 2930
917 3354
917 4065
917 4316
917 4751
918 1604
918 2034
918 2149
918 2159
918 2574
918 2652
918 2870
918 2899
918 3068
918 4143
918 4475
918 4488
918 4519
919 1433
919 1655
919 1770
919 2360
919 2476
919 2479
919 2770
919 2816
919 3065
919 3594
919 3702
919 4108
919 4228
919 4816
919 4842
919 4980
920 927
920 1579
920 1829
920 1869
920 2213
920 2277
920 2297
920 2582
920 3201
920 3264
920 3350
920 3446
920 4145
920 4220
920 4816
921 973
921 1002
921 1143
921 1531
921 1871
921 1889
921 2029
921 2496
921 2553
921 3294
921 3876
921 3978
921 4056
921 4270
921 4307
921 4332
921 4625
921 4719
922 938
922 2752
922 3160
922 3954
922 4145
922 4913
923 935
923 988
923 1586
923 1704
923 1796
923 2121
923 2338
923 2697
923 2835
923 2911
923 2992
923 3802
923 3828
923 3886
923 4075
923 4164
923 4299
923 4724
923 4776
924 980
924 1359
924 1502
924 1780
924 2660
924 2706
924 3713
924 3893
924 3993
924 4352
925 1161
925 1366
925 1576
925 1637
925 1696
925 1871
925 3253
925 3445
925 3668
925 4191
925 4217
925 4580
925 4648
925 4969
926 1314
926 1427
926 1828
926 2554
926 3181
926 3355
926 4290
926 4650
926 4851
927 1163
927 1716
927 2171
927 2173
927 3091
927 3131
927 3135
927 3295
927 3349
927 3410
927 3840
927 4312
927 4470
927 4950
928 1513
928 1523
928 1666
928 1983
928 3153
928 3408
928 3463
928 3976
928 4240
928 4494
928 4827
928 4890
929 989
929 1331
929 1378
929 1748
929 2195
929 2895
929 3763
929 4026
929 4405
930 953
930 1686
930 1718
930 2743
930 2782
930 3001
930 3613
930 3983
930 4763
930 4804
930 4830
931 1073
931 1350
931 1372
931 1848
931 1957
931 2093
931 2400
931 3011
931 4491
931 4507
931 4801
932 1252
932 2653
932 4107
932 4150
932 4235
932 4505
932 4660
933 1107
933 1622
933 2108
933 2405
933 2491
933 2794
933 2868
933 3748
933 4196
933 4426
933 4737
934 997
934 998
934 1331
934 1562
934 1693
934 2605
934 2635
934 2945
934 3207
934 3489
934 4517
935 1124
935 1285
935 1398
935 1739
935 1806
935 1818
935 1824
935 2118
935 2315
935 2368
935 2403
935 2517
935 3060
935 3737
935 4072
935 4131
935 4289
935 4392
935 4417
935 4447
935 4535
935 4744
936 1362
936 1417
936 1934
936 2490
936 2803
936 3487
936 3792
936 3986
936 4066
936 4113
936 4703
936 4930
937 948
937 1004
937 1123
937 1321
937 1692
937 2025
937 2241
937 2626
937 2634
937 2765
937 2869
937 3483
937 3684
937 3735
937 3876
937 4147
937 4211
937 4444
937 4480
937 4500
937 4529
937 4584
937 4804
938 1262
938 1299
938 1322
938 1780
938 1865
938 2196
938 3146
938 3237
938 3789
938 3954
938 3976
938 4497
938 4911
938 4939
938 4959
938 4982
939 1352
939 1579
939 3034
939 3571
939 4118
940 1004
940 1273
940 1305
940 1482
940 2162
940 2393
940 2821
940 2966
940 3151
940 3239
940 3361
940 3688
940 3748
940 3807
940 3945
940 4052
940 4351
940 4363
940 4789
940 4831
941 973
941 1777
941 1913
941 1926
941 2027
941 3776
941 3994
941 4404
942 947
942 1330
942 1418
942 1486
942 1592
942 2176
942 2284
942 2360
942 2727
942 2741
942 3017
942 3147
942 3632
942 3733
942 3859
942 4412
942 4617
942 4619
943 1019
943 2088
943 2461
943 2610
943 2680
943 2714
943 2719
943 3267
943 3420
943 3683
943 3690
943 3868
944 959
944 1118
944 1131
944 1835
944 2428
944 2544
944 2947
944 3158
944 3410
944 3558
944 3743
944 3923
944 4086
945 1026
945 1184
945 1700
945 2036
945 2052
945 2099
945 4329
945 4878
946 1033
946 1190
946 1550
946 1576
946 1643
946 1979
946 2029
946 2115
946 2461
946 2581
946 2688
946 3058
946 3350
946 3433
946 3522
946 3689
946 3889
946 3894
946 4540
946 4742
946 4893
946 4957
947 1226
947 2176
947 2284
947 2741
947 2829
947 3055
947 3695
947 3733
947 4412
948 992
948 1220
948 1295
948 1350
948 2201
948 2371
948 2416
948 2533
948 2547
948 3052
948 3175
948 3470
948 3660
948 3824
948 4035
948 4279
948 4457
948 4533
948 4550
948 4576
948 4868
948 4963
948 4980
949 1191
949 1637
949 1998
949 2204
949 2266
949 2504
949 2767
949 2985
949 3366
949 3466
949 3661
949 3699
949 3813
949 4066
949 4184
949 4484
950 1293
950 1627
950 1861
950 1886
950 2165
950 2389
950 2468
950 2826
950 3168
950 3801
950 3841
950 3901
950 4586
950 4788
950 4815
951 966
951 1312
951 1375
951 1404
951 1479
951 1686
951 1824
951 2128
951 2370
951 2451
951 2685
951 2858
951 3182
951 3419
951 3524
951 3880
951 4049
951 4078
951 4409
951 4441
951 4623
951 4700
952 975
952 1361
952 1527
952 1600
952 1637
952 1767
952 1954
952 2125
952 2292
952 2454
952 2728
952 2885
952 2905
952 3048
952 3693
952 4132
952 4349
952 4407
952 4450
952 4698
952 4799
952 4883
952 4949
953 1140
953 1806
953 1856
953 2044
953 2718
953 2769
953 2822
953 2922
953 2970
953 3071
953 3731
953 3748
953 3908
953 4258
953 4900
953 4976
954 1054
954 1503
954 1855
954 1962
954 2274
954 3655
954 4026
954 4164
954 4622
955 1087
955 1341
955 1536
955 1729
955 2022
955 2101
955 2124
955 2524
955 3157
955 3237
955 3504
955 3652
955 3775
955 4860
956 1551
956 1767
956 2248
956 2813
956 2847
956 2848
956 3289
956 4003
956 4315
956 4326
957 1327
957 1946
957 2217
957 2525
957 2992
957 3044
957 3390
957 4071
958 1483
958 2097
958 2126
958 2490
958 2539
958 2662
958 2735
958 2792
958 3259
958 3864
958 4431
958 4846
958 4912
959 1131
959 1627
959 2437
959 2714
959 3158
959 3410
959 3774
959 3923
959 3950
959 4568
960 1254
960 1516
960 1669
960 1674
960 2290
960 3150
960 3678
960 4515
960 4648
960 4735
960 4788
961 1000
961 1014
961 1278
961 1881
961 2654
961 2763
961 3649
961 3651
961 3663
961 3751
961 4481
961 4958
961 4970
962 989
962 1165
962 1529
962 1572
962 1876
962 1929
962 1930
962 2467
962 2683
962 2691
962 2849
962 2964
962 3430
962 3496
962 3683
962 3737
962 4157
963 1040
963 1076
963 1221
963 1257
963 1290
963 1577
963 1938
963 2061
963 2086
963 2233
963 2266
963 2347
963 2524
963 2609
963 2614
963 2639
963 3073
963 3613
963 4118
963 4281
963 4357
963 4360
963 4430
963 4475
963 4825
963 4848
963 4930
963 4969
964 1046
964 1492
964 1591
964 1754
964 1797
964 2483
964 3110
964 4127
964 4380
964 4455
964 4775
965 1844
965 1867
965 1966
965 3110
965 3246
965 3421
965 3425
965 3539
965 3543
965 3559
965 3881
966 968
966 1470
966 1630
966 2052
966 2328
966 3396
966 4716
967 976
967 993
967 1050
967 1111
967 1413
967 1414
967 1662
967 2187
967 2462
967 2634
967 2813
967 3322
967 3590
967 3923
967 4169
967 4444
967 4499
967 4865
968 1782
968 2506
968 2619
968 3396
968 3685
968 3808
968 4376
968 4913
969 1104
969 1398
969 1682
969 2153
969 2768
969 2798
969 2813
969 3237
969 3270
969 3363
969 3426
969 3453
969 3559
969 3640
969 4040
969 4560
969 4615
969 4876
969 4970
970 1306
970 1594
970 2677
970 3531
970 3608
970 3797
970 4341
970 4989
971 2340
971 2412
971 2679
971 3548
971 3918
971 4269
971 4379
971 4486
972 1094
972 1166
972 1248
972 1621
972 1827
972 3140
972 3545
972 3660
972 3722
972 3808
972 4858
973 1141
973 1205
973 1627
973 1688
973 1712
973 1724
973 1831
973 2126
973 2324
973 2347
973 2459
973 2764
973 3000
973 3210
973 3355
973 3367
973 3492
973 3571
973 3630
973 3649
973 3691
973 4051
973 4057
973 4226
973 4742
974 1008
974 1066
974 1296
974 1886
974 2353
974 3197
974 4268
974 4621
974 4782
974 4966
975 1207
975 1348
975 1597
975 2359
975 2393
975 2400
975 2456
975 3047
975 3687
975 4331
975 4638
975 4889
975 4902
976 1050
976 1446
976 1469
976 1663
976 2813
976 2911
976 2947
976 3709
976 3809
976 4499
976 4621
977 1192
977 1241
977 1380
977 1610
977 1796
977 2186
977 2191
977 2195
977 2202
977 2308
977 2377
977 2512
977 2523
977 2749
977 2832
977 3091
977 3188
977 3458
977 3514
977 3520
977 3576
977 3654
977 3806
977 4072
977 4112
977 4305
977 4781
978 1095
978 2387
978 2613
978 2934
978 3633
978 4523
978 4595
978 4680
978 4786
979 1098
979 1745
979 1844
979 2408
979 2797
979 2888
979 2901
979 2979
979 3136
979 3827
979 4401
980 1121
980 1252
980 1707
980 2494
980 2819
980 3105
980 3301
980 3764
980 4887
981 1266
981 1575
981 1809
981 1924
981 2255
981 2263
981 2636
981 2806
981 3738
981 3914
981 4378
981 4771
981 4840
981 4841
981 4854
981 4926
981 4953
982 1776
982 1916
982 2505
982 2764
982 3008
982 3079
982 3755
982 4645
983 1045
983 1562
983 1633
983 2412
983 2961
983 3013
983 4410
984 1492
984 1783
984 1894
984 2059
984 2470
984 2952
984 3057
984 3079
984 3251
984 3358
984 3668
984 3805
984 4450
984 4629
984 4845
985 986
985 1910
985 1996
985 3016
985 3159
985 3208
985 3263
985 3316
985 3984
985 4541
985 4739
985 4789
985 4873
986 1112
986 1160
986 1470
986 1480
986 1502
986 1505
986 1556
986 1732
986 1734
986 1742
986 2017
986 3119
986 3252
986 3253
986 3321
986 3611
986 3757
986 3866
986 3965
986 4086
986 4160
986 4212
986 4499
986 4710
987 2324
987 2619
987 3418
987 3483
987 3901
987 4016
987 4398
987 4716
987 4752
988 1025
988 1059
988 1380
988 1731
988 1790
988 2069
988 2260
988 2704
988 2984
988 3193
988 3226
988 3849
988 4085
988 4113
988 4124
988 4907
989 1660
989 1685
989 2656
989 2763
989 2884
989 2967
989 3293
989 3584
989 3866
989 4084
989 4651
990 1387
990 1424
990 1442
990 2050
990 2501
990 3786
990 3849
990 3872
990 3958
991 1016
991 1293
991 1421
991 1841
991 1901
991 3264
991 3284
991 3351
991 3821
991 3954
991 4243
991 4723
992 1388
992 1806
992 2647
992 2731
992 2732
992 2895
992 2940
992 3928
992 4424
993 1140
993 1207
993 1604
993 1841
993 1931
993 3817
993 4982
994 1294
994 1407
994 1466
994 1471
994 1692
994 2152
994 2394
994 2525
994 2705
994 3323
994 3334
994 3452
994 3470
994 3688
994 3754
994 4090
994 4123
994 4216
994 4305
994 4382
994 4820
994 4853
994 4879
995 1032
995 1948
995 2069
995 2666
995 2780
995 2930
995 3209
995 4377
995 4737
996 1048
996 1566
996 1574
996 1621
996 2057
996 2245
996 2469
996 2807
996 3075
996 3402
996 3667
996 4937
997 1064
997 1776
997 2948
997 4405
997 4643
998 1164
998 1381
998 1634
998 1640
998 1652
998 2074
998 2660
998 2696
998 2709
998 2821
998 3115
998 3153
998 3201
998 3329
998 3387
998 4138
998 4195
998 4331
998 4537
998 4760
998 4768
999 1232
999 1304
999 1308
999 1359
999 1400
999 2090
999 2154
999 2544
999 2595
999 3280
999 3300
999 3389
999 3403
999 3653
999 3728
999 3736
999 3815
999 4340
999 4734
999 4930
1000 1278
1000 2429
1000 2455
1000 3699
1000 3751
1000 4208
1000 4342
1000 4543
1001 1508
1001 1606
1001 2260
1001 3295
1001 3525
1001 3555
1001 3833
1001 4407
1001 4637
1001 4853
1002 2453
1002 2641
1002 3053
1002 3472
1002 4225
1002 4586
1002 4862
1003 1172
1003 1189
1003 1283
1003 1333
1003 1658
1003 1765
1003 1830
1003 2054
1003 2146
1003 2279
1003 2425
1003 2450
1003 2990
1003 3070
1003 3347
1003 3355
1003 3496
1003 3764
1003 4012
1003 4136
1003 4172
1003 4806
1003 4897
1004 1501
1004 1525
1004 1699
1004 1859
1004 2629
1004 4508
1004 4526
1005 3015
1005 3249
1005 3288
1005 3323
1005 3370
1005 3851
1005 4107
1005 4185
1005 4533
1005 4989
1006 2087
1006 2136
1006 2283
1006 2306
1006 3442
1006 3684
1006 4023
1006 4970
1007 1070
1007 1769
1007 1990
1007 2667
1007 3083
1007 3471
1007 3773
1007 4312
1008 1205
1008 2154
1008 2231
1008 2337
1008 2398
1008 2501
1008 2793
1008 2891
1008 3304
1008 3345
1008 3455
1008 3707
1008 3965
1008 4186
1008 4487
1008 4600
1008 4678
1008 4694
1008 4755
1009 1486
1009 1490
1009 1945
1009 2192
1009 3032
1009 3237
1009 3442
1009 3552
1009 3718
1009 4249
1009 4512
1009 4962
1010 1045
1010 1140
1010 1253
1010 1415
1010 1895
1010 2143
1010 2621
1010 3512
1011 1280
1011 1967
1011 2007
1011 2329
1011 2422
1011 3063
1011 3347
1011 3470
1011 3574
1011 4275
1011 4333
1011 4434
1011 4497
1011 4803
1011 4858
1012 1084
1012 1108
1012 1429
1012 2718
1012 3123
1012 3171
1012 3715
1012 3740
1012 4490
1013 1058
1013 1065
1013 1306
1013 2414
1013 2677
1013 3935
1013 4030
1013 4303
1013 4964
1014 1278
1014 1454
1014 1554
1014 1942
1014 2654
1014 2831
1014 3350
1014 3699
1014 3751
1014 4427
1014 4671
1014 4759
1014 4788
1014 4958
1015 1418
1015 1504
1015 2059
1015 2487
1015 2492
1015 2508
1015 2742
1015 2916
1015 3068
1015 3187
1015 4086
1015 4479
1015 4551
1015 4849
1015 4974
1016 1769
1016 1939
1016 2633
1016 2673
1016 2676
1016 3264
1017 2356
1017 2530
1017 2582
1017 3698
1017 3708
1017 3805
1017 4064
1017 4130
1017 4540
1017 4565
1017 4678
1018 2672
1018 2841
1018 2852
1018 2897
1018 3056
1018 3562
1018 3657
1018 4807
1019 1555
1019 1641
1019 1928
1019 2680
1019 2686
1019 2719
1019 2858
1019 2978
1019 3061
1019 3690
1019 3868
1019 4281
1019 4334
1019 4758
1019 4950
1020 1036
1020 2127
1020 2804
1020 3302
1020 3513
1020 3847
1020 4381
1021 1076
1021 1459
1021 2947
1021 3474
1021 3804
1021 4273
1021 4777
1022 1087
1022 1251
1022 1641
1022 1793
1022 2358
1022 2440
1022 2686
1022 3149
1022 3155
1022 3260
1022 3327
1022 3366
1022 3434
1022 3492
1022 3524
1022 3531
1022 3571
1022 3860
1022 4434
1022 4462
1022 4589
1022 4649
1022 4855
1023 2105
1023 2438
1023 2753
1023 3818
1023 4134
1024 1234
1024 1246
1024 2037
1024 2402
1024 2499
1024 2740
1024 4405
1024 4788
1025 1254
1025 1418
1025 1566
1025 1569
1025 2033
1025 2054
1025 2113
1025 2381
1025 2435
1025 2521
1025 2540
1025 2733
1025 3209
1025 3532
1025 3590
1025 3659
1025 3941
1025 4027
1025 4135
1025 4318
1025 4692
1025 4715
1025 4733
1026 1347
1026 1853
1026 2036
1026 4878
1027 1184
1027 1206
1027 1557
1027 1590
1027 1630
1027 2328
1027 2739
1027 2910
1027 3241
1027 3975
1027 4232
1027 4357
1027 4377
1027 4792
1027 4849
1027 4905
1028 1263
1028 1541
1028 1560
1028 1621
1028 2951
1028 3150
1028 3417
1028 4550
1029 1283
1029 1647
1029 2411
1029 2547
1029 3203
1029 3600
1029 3775
1029 3988
1030 1137
1030 1421
1030 2353
1030 2514
1030 2543
1030 2676
1030 2938
1030 4514
1030 4860
1031 1455
1031 2033
1031 2049
1031 2720
1031 3008
1031 3302
1031 3540
1031 3574
1031 4050
1032 1851
1032 2048
1032 2186
1032 2265
1032 2589
1032 2780
1032 2930
1032 3142
1032 4047
1033 1232
1033 1292
1033 1744
1033 2268
1033 2639
1033 2979
1033 3395
1033 3889
1033 3957
1034 1699
1034 2304
1034 3796
1034 3867
1034 4344
1034 4516
1034 4768
1035 1487
1035 1580
1035 1715
1035 2099
1035 2251
1035 2503
1035 3090
1035 3101
1035 3147
1035 3480
1035 4059
1035 4528
1035 4544
1035 4966
1036 1352
1036 2103
1036 2702
1036 3248
1036 4155
1036 4177
1036 4548
1037 1276
1037 1455
1037 1548
1037 2664
1037 2732
1037 3080
1037 4470
1038 2140
1038 2678
1038 3709
1038 4141
1038 4780
1039 1469
1039 1633
1039 1688
1039 1744
1039 2045
1039 2324
1039 2466
1039 2951
1039 3004
1039 3409
1039 4858
1040 1606
1040 1628
1040 2016
1040 2555
1040 2982
1040 3133
1040 3295
1040 3525
1040 3555
1040 4407
1040 4824
1040 4853
1041 1254
1041 1534
1041 2038
1041 2865
1041 2953
1041 3046
1041 3176
1041 3540
1041 3554
1041 3586
1041 3758
1041 4018
1041 4390
1041 4453
1041 4959
1042 1187
1042 1297
1042 1324
1042 1590
1042 1807
1042 1974
1042 2595
1042 2668
1042 2670
1042 2671
1042 2918
1042 2937
1042 3059
1042 3254
1042 3431
1042 3749
1042 3858
1042 4582
1043 1123
1043 1452
1043 2312
1043 2855
1043 3509
1043 3921
1043 4465
1043 4552
1044 2318
1044 2409
1044 2773
1044 2820
1044 2908
1044 3024
1044 3137
1044 3198
1044 3561
1044 3591
1044 4181
1044 4307
1044 4781
1044 4985
1044 4991
1045 1087
1045 1559
1045 1633
1045 1646
1045 2961
1045 3527
1045 4392
1045 4469
1045 4890
1046 1591
1046 1609
1046 2164
1046 2242
1046 2462
1046 4127
1046 4380
1047 1974
1047 2463
1047 2949
1047 3092
1047 3821
1047 3999
1047 4148
1047 4427
1047 4729
1047 4749
1047 4867
1047 4966
1048 1205
1048 1304
1048 1566
1048 1854
1048 2057
1048 2238
1048 2245
1048 2287
1048 2433
1048 2469
1048 2575
1048 2912
1048 2983
1048 3075
1048 3289
1048 3667
1048 3734
1048 3862
1048 3908
1048 3919
1048 4109
1048 4930
1049 1130
1049 2446
1049 2877
1049 2886
1049 3135
1049 3313
1049 3348
1049 3358
1049 4364
1049 4881
1050 1089
1050 1467
1050 1478
1050 1662
1050 1931
1050 2462
1050 3183
1050 3346
1050 3352
1050 3759
1050 3989
1050 4499
1051 1376
1051 1590
1051 1938
1051 2129
1051 2157
1051 2226
1051 2597
1051 2624
1051 2713
1051 2920
1051 3228
1051 3248
1051 3251
1051 3292
1051 3294
1051 3473
1051 3717
1051 4243
1051 4972
1052 1059
1052 1075
1052 1149
1052 1221
1052 1442
1052 1678
1052 1854
1052 2432
1052 3929
1052 4356
1052 4621
1052 4901
1053 2259
1053 2444
1053 4381
1053 4472
1053 4980
1054 1124
1054 1153
1054 1503
1054 1767
1054 1848
1054 1962
1054 2116
1054 2244
1054 2274
1054 2312
1054 2343
1054 2347
1054 2392
1054 2620
1054 2642
1054 2705
1054 2732
1054 3655
1054 4026
1054 4164
1054 4219
1054 4571
1054 4771
1054 4847
1054 4965
1055 2127
1055 2410
1055 2452
1055 3208
1055 3955
1055 4576
1055 4593
1056 1224
1056 1786
1056 1989
1056 2380
1056 2572
1056 2809
1056 2962
1056 3556
1056 3583
1056 4145
1056 4497
1056 4566
1056 4576
1056 4641
1056 4886
1057 1060
1057 2125
1057 2127
1057 2590
1057 2875
1057 2894
1057 2902
1057 4344
1057 4450
1057 4842
1058 1109
1058 1137
1058 1228
1058 2047
1058 2213
1058 2255
1058 3046
1058 3489
1058 3596
1058 4051
1058 4192
1058 4630
1059 1658
1059 1731
1059 2069
1059 2130
1059 2185
1059 2584
1059 3001
1059 3193
1059 3226
1059 3344
1059 4113
1059 4300
1059 4420
1060 1658
1060 1889
1060 2275
1060 2513
1060 2592
1060 2784
1060 2846
1060 2870
1060 3065
1060 3472
1060 3473
1060 3610
1060 3726
1060 3817
1060 3834
1060 4078
1060 4167
1060 4321
1060 4551
1060 4695
1060 4830
1061 2072
1061 2124
1061 2482
1061 2951
1061 4797
1061 4957
1062 1473
1062 1896
1062 2677
1062 4034
1062 4077
1062 4150
1062 4227
1062 4257
1062 4848
1062 4946
1062 4992
1063 1755
1063 2043
1063 2099
1063 2169
1063 3000
1063 3002
1063 3351
1063 3462
1063 3967
1064 2973
1064 3840
1064 4502
1064 4790
1065 2670
1065 2867
1065 3778
1065 3925
1065 4405
1066 1296
1066 2470
1066 3248
1066 3324
1066 3963
1066 4767
1067 1601
1067 1931
1067 2815
1067 2878
1067 3015
1067 3223
1067 3568
1067 4456
1067 4546
1067 4671
1068 1441
1068 1723
1068 1794
1068 1815
1068 2073
1068 2166
1068 2434
1068 2466
1068 2584
1068 4338
1068 4529
1068 4593
1069 1097
1069 1347
1069 1359
1069 1411
1069 1530
1069 1536
1069 1972
1069 1988
1069 2122
1069 2646
1069 3087
1069 3139
1069 3241
1069 3605
1069 3776
1069 3860
1069 3886
1069 4005
1069 4577
1069 4602
1069 4837
1069 4873
1070 1122
1070 1144
1070 1156
1070 1551
1070 1854
1070 2149
1070 2234
1070 2538
1070 3005
1070 4623
1070 4833
1070 4989
1071 1407
1071 2000
1071 2238
1071 2461
1071 2940
1071 3315
1071 3649
1071 4529
1071 4722
1072 1178
1072 1418
1072 1439
1072 1551
1072 1871
1072 2206
1072 2216
1072 2872
1072 3478
1072 3701
1072 4518
1072 4744
1073 1137
1073 1355
1073 1848
1073 2400
1073 2413
1073 2726
1074 1832
1074 1861
1074 2198
1074 2205
1074 2522
1074 2635
1074 2694
1074 2732
1074 2862
1074 3607
1074 3998
1074 4770
1074 4779
1075 1229
1075 1237
1075 1271
1075 1513
1075 1935
1075 2607
1075 2623
1075 2808
1075 2893
1075 3240
1075 3551
1075 3689
1075 3837
1075 3956
1075 4044
1075 4103
1075 4609
1075 4643
1075 4786
1075 4923
1076 1758
1076 1834
1076 2947
1076 2997
1076 3271
1076 3804
1076 4156
1076 4415
1077 1389
1077 2532
1077 2568
1077 2611
1077 2748
1077 2965
1077 3105
1077 3752
1077 3832
1077 4130
1077 4177
1077 4318
1077 4507
1077 4794
1077 4921
1078 1547
1078 1603
1078 1733
1078 2218
1078 2770
1078 2871
1078 3566
1078 3584
1078 3727
1078 3734
1078 4072
1078 4282
1078 4785
1079 1177
1079 1187
1079 1189
1079 1373
1079 1833
1079 1898
1079 2140
1079 2977
1079 3732
1079 3812
1079 3814
1079 3836
1079 3854
1079 4131
1079 4162
1079 4888
1079 4889
1080 1129
1080 1158
1080 1282
1080 1540
1080 2071
1080 2117
1080 2797
1080 2988
1080 3348
1080 3449
1080 4326
1080 4560
1080 4596
1081 1257
1081 1313
1081 2077
1081 2495
1081 3450
1081 3527
1081 3623
1081 4131
1081 4837
1082 2010
1082 2514
1082 3322
1082 3588
1082 4581
1082 4699
1082 4978
1083 1360
1083 2193
1083 2620
1083 2817
1083 2903
1083 2931
1083 3052
1083 3313
1083 3820
1083 4589
1083 4873
1084 1358
1084 2319
1084 2718
1084 2917
1084 2964
1084 3715
1084 4490
1084 4725
1085 1430
1085 2064
1085 2104
1085 2254
1085 2301
1085 2590
1085 3063
1085 4767
1085 4884
1085 4917
1086 1812
1086 2194
1086 3324
1086 3464
1086 4287
1086 4298
1086 4306
1086 4501
1086 4639
1087 2005
1087 2115
1087 2542
1087 3486
1087 3882
1087 4014
1087 4153
1087 4228
1087 4289
1087 4914
1088 1115
1088 1694
1088 1834
1088 2587
1088 3416
1088 4837
1089 1174
1089 1342
1089 1525
1089 1699
1089 1940
1089 2072
1089 2318
1089 2338
1089 2808
1089 3194
1089 3269
1089 3580
1089 4902
1090 1160
1090 1326
1090 1417
1090 2457
1090 2463
1090 2495
1090 2797
1090 3071
1090 3262
1090 3625
1090 3637
1090 3784
1090 3840
1090 4034
1090 4084
1090 4112
1090 4135
1090 4212
1090 4318
1090 4408
1090 4454
1090 4669
1091 1147
1091 1258
1091 1394
1091 1437
1091 3075
1091 3696
1091 3973
1091 4315
1091 4340
1091 4582
1092 1212
1092 1292
1092 1995
1092 2226
1092 2376
1092 2512
1092 2982
1092 3081
1092 3290
1092 3593
1092 3608
1092 3838
1092 3989
1092 4403
1092 4431
1092 4720
1092 4920
1092 4997
1093 1175
1093 1305
1093 2122
1093 2190
1093 2665
1093 3768
1093 4116
1093 4229
1093 4401
1094 2213
1094 2329
1094 2482
1094 4262
1094 4657
1094 4733
1094 4947
1095 1116
1095 1992
1095 2111
1095 2305
1095 2882
1095 3774
1095 4099
1095 4456
1095 4812
1096 1710
1096 1905
1096 1994
1096 2012
1096 2280
1096 2403
1096 2594
1096 2648
1096 2692
1096 2714
1096 2983
1096 3272
1096 3403
1096 3956
1096 4098
1096 4159
1096 4224
1096 4292
1097 2090
1097 2410
1097 3040
1097 3354
1097 3536
1097 3858
1097 4104
1097 4332
1097 4680
1097 4807
1098 1657
1098 1745
1098 1993
1098 2770
1098 2776
1098 2888
1098 2979
1098 3047
1098 3666
1098 4300
1098 4902
1099 1951
1099 2025
1099 2260
1099 2306
1099 2931
1099 3098
1099 3717
1099 4300
1099 4467
1099 4834
1099 4957
1100 1139
1100 1263
1100 1723
1100 2096
1100 2112
1100 2363
1100 2896
1100 2951
1100 2953
1100 3150
1100 3417
1100 4550
1100 4642
1101 1261
1101 1435
1101 1936
1101 2364
1101 2376
1101 2438
1101 3052
1101 3245
1101 3446
1101 3775
1101 4199
1101 4391
1101 4448
1101 4931
1102 2133
1102 3081
1102 3539
1102 3932
1102 4024
1102 4166
1102 4449
1103 1330
1103 1655
1103 1656
1103 2549
1103 2695
1103 3668
1103 4278
1103 4345
1103 4667
1104 1143
1104 1592
1104 1864
1104 2012
1104 2180
1104 2247
1104 2449
1104 2973
1104 3032
1104 3096
1104 3182
1104 3328
1104 3353
1104 4805
1105 1108
1105 1255
1105 1257
1105 2238
1105 2495
1105 2607
1105 2762
1105 2893
1105 2949
1105 3450
1105 3623
1105 3904
1105 3979
1105 3997
1105 4682
1105 4726
1105 4891
1105 4895
1105 4985
1106 1584
1106 1624
1106 1658
1106 2453
1106 2609
1106 3490
1106 3809
1106 4480
1106 4736
1106 4813
1107 1261
1107 1661
1107 1679
1107 1867
1107 2345
1107 2674
1107 2976
1107 2998
1107 3014
1107 3464
1107 3585
1107 3611
1107 3773
1107 3777
1107 3862
1107 3867
1107 4097
1107 4371
1107 4508
1107 4626
1107 4861
1108 1307
1108 1655
1108 2237
1108 2335
1108 2373
1108 2493
1108 2512
1108 3835
1108 4290
1108 4705
1109 3112
1109 3318
1109 3585
1109 3772
1109 4283
1109 4989
1110 1678
1110 2051
1110 2165
1110 2244
1110 2525
1110 2711
1110 3447
1110 3555
1110 3700
1110 4510
1110 4682
1110 4901
1111 1233
1111 1381
1111 1484
1111 1804
1111 2188
1111 2428
1111 2716
1111 2805
1111 2819
1111 2858
1111 2977
1112 1215
1112 1360
1112 1589
1112 2298
1112 2387
1112 2707
1112 2768
1112 3588
1112 3689
1112 3769
1112 3944
1113 1300
1113 1346
1113 1583
1113 1651
1113 2005
1113 2173
1113 2239
1113 2402
1113 3426
1113 4014
1113 4237
1113 4706
1114 1426
1114 1579
1114 1681
1114 2834
1114 3109
1114 3477
1114 3640
1114 4577
1114 4771
1115 1694
1115 1834
1115 2305
1115 2325
1115 2566
1115 2791
1115 3381
1115 3401
1115 3416
1115 3451
1115 4139
1115 4253
1115 4505
1115 4623
1115 4873
1116 1479
1116 1728
1116 2059
1116 2325
1116 3773
1116 4131
1116 4237
1116 4662
1116 4760
1117 1590
1117 1865
1117 1886
1117 1942
1117 2054
1117 2209
1117 2670
1117 2671
1117 2751
1117 2937
1117 3173
1117 3541
1117 3570
1117 3727
1117 3773
1117 3900
1117 4694
1117 4736
1118 2587
1118 2668
1118 2671
1118 2776
1118 3570
1118 3704
1118 3858
1118 3909
1118 4561
1118 4563
1118 4737
1118 4907
1119 1697
1119 1724
1119 1892
1119 2909
1119 3093
1119 3525
1119 3713
1119 3745
1119 3747
1119 3800
1119 4070
1119 4221
1119 4439
1119 4550
1119 4592
1119 4689
1119 4733
1119 4784
1120 1275
1120 1316
1120 1410
1120 1468
1120 1633
1120 1685
1120 3010
1120 3148
1120 3156
1120 3373
1120 3637
1120 3828
1120 3930
1120 4308
1120 4356
1120 4383
1120 4945
1121 1180
1121 1835
1121 1893
1121 1988
1121 2253
1121 2258
1121 2339
1121 2367
1121 2492
1121 2594
1121 2732
1121 3174
1121 3181
1121 3408
1121 3449
1121 3585
1121 3728
1121 3917
1121 4197
1121 4519
1121 4541
1121 4588
1121 4980
1121 4986
1122 1218
1122 1299
1122 1404
1122 1664
1122 1792
1122 1940
1122 2651
1122 2838
1122 3629
1122 4117
1122 4139
1122 4506
1122 4538
1122 4749
1122 4807
1123 1391
1123 2688
1123 2934
1123 3639
1123 3896
1124 2163
1124 2249
1124 2301
1124 3577
1125 1660
1125 1841
1125 2392
1125 2656
1125 3019
1125 3128
1125 3293
1125 4180
1126 1903
1126 1958
1126 2125
1126 2161
1126 2178
1126 2396
1126 2408
1126 2434
1126 2448
1126 3085
1126 3339
1126 3383
1126 3475
1126 3508
1126 3546
1126 3875
1126 3884
1126 4206
1126 4715
1126 4801
1127 1170
1127 1711
1127 1917
1127 2177
1127 2461
1127 3140
1127 3229
1127 3514
1127 3604
1127 3809
1127 3845
1127 4179
1127 4425
1127 4592
1128 1377
1128 3273
1128 3333
1128 3413
1128 3620
1128 3934
1128 4303
1128 4637
1129 1791
1129 2361
1129 2486
1129 2497
1129 3023
1129 3238
1129 3374
1129 3377
1129 4003
1129 4164
1130 1681
1130 1781
1130 2261
1130 2278
1130 2327
1130 2498
1130 2499
1130 2863
1130 3075
1130 3274
1130 3293
1130 3961
1130 4103
1130 4226
1130 4337
1130 4474
1130 4534
1130 4979
1131 2032
1131 2058
1131 2437
1131 2721
1131 3158
1131 3923
1131 4786
1131 4917
1132 2541
1132 2897
1132 3396
1132 3632
1132 3721
1132 3830
1132 4738
1132 4784
1132 4853
1133 2395
1133 2743
1133 3001
1133 3156
1133 3337
1133 4763
1134 1357
1134 1410
1134 1559
1134 1873
1134 2354
1134 2357
1134 3320
1134 3472
1134 3823
1134 4153
1134 4216
1134 4529
1134 4633
1134 4872
1135 1515
1135 1804
1135 2094
1135 3034
1135 3320
1135 3726
1135 3762
1135 3799
1135 3803
1135 4617
1135 4849
1136 1263
1136 1274
1136 2363
1136 3692
1137 1192
1137 1302
1137 2965
1137 3129
1137 3471
1137 3500
1137 3596
1137 3848
1137 4032
1137 4856
1138 1222
1138 1247
1138 1782
1138 2682
1138 3487
1138 3710
1138 4049
1138 4294
1138 4766
1139 1263
1139 1541
1139 2198
1139 2405
1139 2714
1139 2951
1139 3090
1139 3150
1139 4550
1139 4721
1139 4803
1140 1296
1140 1328
1140 2044
1140 2324
1140 2970
1140 3098
1140 3409
1140 3731
1140 4006
1140 4258
1140 4900
1140 4922
1141 1724
1141 1971
1141 2759
1141 3000
1141 3691
1141 4051
1141 4798
1141 4803
1142 1862
1142 1870
1142 1973
1142 3234
1142 3501
1142 4229
1142 4333
1142 4935
1143 1736
1143 2288
1143 2306
1143 3295
1143 4719
1144 1314
1144 1769
1144 1808
1144 1854
1144 2206
1144 2667
1144 3571
1145 1236
1145 1414
1145 1631
1145 1654
1145 1811
1145 1827
1145 2161
1145 2229
1145 2626
1145 2941
1145 3447
1145 3794
1145 3804
1145 3998
1145 4009
1145 4479
1146 1349
1146 1552
1146 1735
1146 1953
1146 2015
1146 2051
1146 2876
1146 3415
1146 3587
1146 4007
1146 4503
1147 1150
1147 1394
1147 1419
1147 2069
1147 2523
1147 3094
1147 3341
1147 3632
1147 3640
1147 4340
1147 4558
1147 4582
1148 1216
1148 2619
1148 2851
1148 3020
1148 3150
1148 3704
1148 3749
1148 4511
1148 4594
1149 1229
1149 1315
1149 1633
1149 2253
1149 3080
1149 3117
1149 3615
1149 3970
1149 4133
1150 1476
1150 2049
1150 2477
1150 2799
1150 2940
1150 3207
1150 3228
1150 3326
1150 3449
1150 3939
1150 4262
1150 4358
1150 4659
1150 4795
1150 4798
1151 1294
1151 1501
1151 1671
1151 1820
1151 3460
1151 3569
1151 3595
1151 3602
1151 3958
1151 3990
1151 4626
1152 1346
1152 1466
1152 1815
1152 2014
1152 2727
1152 2742
1152 2814
1152 3120
1152 3189
1152 3830
1152 3888
1152 4018
1152 4210
1152 4284
1152 4322
1152 4413
1152 4824
1152 4942
1153 1513
1153 1594
1153 2225
1153 2274
1153 2369
1153 2392
1153 4026
1153 4082
1153 4164
1154 1215
1154 1482
1154 2200
1154 2810
1154 2928
1154 2931
1154 2971
1154 3088
1154 4042
1154 4378
1154 4399
1154 4717
1154 4842
1155 1209
1155 2197
1155 2469
1155 2508
1155 3193
1155 3271
1155 3282
1155 3526
1155 3718
1155 3849
1155 4703
1156 1475
1156 2074
1156 2713
1156 2841
1156 2955
1156 4389
1156 4511
1156 4578
1156 4725
1156 4765
1157 1351
1157 2243
1157 2754
1157 3030
1157 3103
1157 3366
1157 3617
1157 4347
1157 4550
1157 4618
1158 1282
1158 1753
1158 1761
1158 1784
1158 1902
1158 2117
1158 2200
1158 2601
1158 3235
1158 3348
1158 3575
1158 3582
1158 3830
1158 3915
1158 4243
1158 4326
1158 4596
1158 4787
1158 4840
1159 1455
1159 2005
1159 2170
1159 2320
1159 2377
1159 2550
1159 2609
1159 2774
1159 3425
1159 4702
1159 4953
1160 1480
1160 1780
1160 2002
1160 3119
1160 3252
1160 3618
1160 3757
1160 4160
1160 4212
1161 1576
1161 1761
1161 1839
1161 1871
1161 3445
1161 3486
1161 4112
1161 4116
1161 4217
1161 4648
1161 4969
1162 1395
1162 1995
1162 2135
1162 2627
1162 3122
1162 3940
1162 4100
1162 4367
1162 4396
1162 4550
1162 4552
1162 4561
1162 4635
1162 4638
1162 4672
1162 4777
1163 3006
1163 3019
1163 3931
1163 4312
1163 4779
1163 4785
1164 1402
1164 1690
1164 1867
1164 2192
1164 2533
1164 2915
1164 3264
1164 3785
1164 3988
1164 3998
1164 4411
1164 4435
1164 4541
1164 4594
1165 1412
1165 1439
1165 1825
1165 2099
1165 2113
1165 3581
1165 3742
1165 3990
1165 4000
1165 4397
1165 4505
1165 4689
1166 1291
1166 1659
1166 1705
1166 1823
1166 2404
1166 2828
1166 3329
1166 3545
1166 4306
1166 4387
1167 2212
1167 2679
1167 2752
1167 2958
1167 3046
1167 3244
1167 3337
1167 3728
1167 4311
1167 4974
1168 1172
1168 1247
1168 2900
1168 3254
1168 3437
1168 3512
1168 4127
1169 1536
1169 2767
1169 3056
1169 3137
1169 3595
1169 4074
1170 1611
1170 2461
1170 3140
1170 3809
1170 4603
1171 1516
1171 1878
1171 2154
1171 2294
1171 3885
1171 4339
1171 4465
1172 1347
1172 1469
1172 1521
1172 1538
1172 1688
1172 2324
1172 2858
1172 3409
1172 4018
1172 4124
1173 1534
1173 1680
1173 2681
1173 2752
1173 2829
1173 3247
1173 3633
1173 3944
1173 4714
1174 1382
1174 2362
1174 2369
1174 3580
1174 4442
1175 1305
1175 1564
1175 1689
1175 1840
1175 2103
1175 2586
1175 4060
1175 4204
1175 4401
1175 4715
1176 1254
1176 1870
1176 2635
1176 3291
1176 3356
1176 3393
1176 3562
1176 3928
1176 4782
1176 4866
1177 1690
1177 1758
1177 1833
1177 2053
1177 2351
1177 2632
1177 2977
1177 3211
1177 3437
1177 3732
1177 3814
1177 4651
1178 1513
1178 1789
1178 1907
1178 2121
1178 2213
1178 2946
1178 3428
1178 4818
1179 2496
1179 3154
1179 3158
1179 3406
1179 3542
1179 3987
1179 4577
1180 1300
1180 1523
1180 1983
1180 1998
1180 2088
1180 2326
1180 2736
1180 2754
1180 3378
1180 3463
1180 3976
1180 4141
1180 4158
1180 4494
1180 4906
1181 1427
1181 1586
1181 1587
1181 1767
1181 2197
1181 2218
1181 2571
1181 2926
1181 3185
1181 3407
1181 3524
1181 3543
1181 4787
1181 4876
1182 1501
1182 1736
1182 1743
1182 2393
1182 3200
1182 3671
1182 3677
1182 3723
1182 3877
1182 3886
1182 3918
1182 4786
1182 4895
1183 1531
1183 1555
1183 1565
1183 1971
1183 2021
1183 2187
1183 2398
1183 2462
1183 2585
1183 2841
1183 3033
1183 3136
1183 3146
1183 3267
1183 3418
1183 3419
1183 3829
1183 3880
1183 3945
1183 4194
1183 4807
1183 4856
1184 1233
1184 1557
1184 1975
1184 2048
1184 3241
1184 3320
1184 4357
1184 4377
1184 4714
1185 1709
1185 2009
1185 2240
1185 2268
1185 2370
1185 2983
1185 3370
1185 3625
1185 4114
1185 4317
1185 4356
1185 4805
1185 4868
1186 1209
1186 1257
1186 2023
1186 2141
1186 2431
1186 2697
1186 2911
1186 3228
1186 3389
1186 3522
1186 3535
1186 3861
1186 3943
1186 4038
1186 4106
1186 4159
1186 4419
1186 4492
1186 4503
1186 4642
1186 4742
1187 1351
1187 1371
1187 1638
1187 1656
1187 1721
1187 1884
1187 2514
1187 2668
1187 2670
1187 2937
1187 2994
1187 3059
1187 3076
1187 3138
1187 3173
1187 3432
1187 3570
1187 3643
1187 3749
1187 3858
1187 3900
1187 3920
1187 4111
1187 4694
1187 4817
1187 4907
1188 1370
1188 1727
1188 1949
1188 2780
1188 3075
1188 3138
1188 3370
1188 3605
1188 3787
1188 4062
1188 4546
1188 4563
1188 4893
1189 1914
1189 2151
1189 2341
1189 2776
1189 3195
1189 4345
1189 4520
1189 4554
1189 4712
1189 4794
1189 4953
1190 1349
1190 1668
1190 1722
1190 1752
1190 1948
1190 2072
1190 2434
1190 3188
1190 3503
1190 3934
1190 4453
1190 4745
1190 4870
1190 4890
1191 1568
1191 1637
1191 1683
1191 3366
1191 3661
1191 4184
1191 4507
1192 1702
1192 3091
1192 3458
1192 3464
1192 3597
1192 4305
1192 4570
1192 4781
1192 4802
1193 1381
1193 1767
1193 2728
1193 2827
1193 3244
1193 3599
1193 3872
1193 3897
1193 4954
1194 1212
1194 1280
1194 1350
1194 1676
1194 1818
1194 1821
1194 2986
1194 3021
1194 4551
1195 1197
1195 1334
1195 1396
1195 1544
1195 2993
1195 3170
1195 3198
1195 3456
1195 3518
1195 4626
1195 4640
1195 4747
1195 4925
1196 1781
1196 2041
1196 2072
1196 2234
1196 2349
1196 3602
1196 3780
1196 4238
1196 4545
1196 4659
1196 4809
1196 4938
1197 1226
1197 1334
1197 1455
1197 1544
1197 1647
1197 2179
1197 2311
1197 2906
1197 3170
1197 3456
1197 3518
1197 4477
1197 4623
1197 4747
1198 1224
1198 1280
1198 1319
1198 1621
1198 1720
1198 1930
1198 2021
1198 2085
1198 2091
1198 2118
1198 2145
1198 2482
1198 2621
1198 2702
1198 3491
1198 3922
1198 4036
1198 4037
1198 4119
1198 4251
1198 4299
1198 4335
1198 4462
1198 4544
1199 1302
1199 1652
1199 3178
1199 3977
1199 4120
1199 4325
1199 4369
1199 4633
1199 4856
1199 4896
1200 1325
1200 1720
1200 1941
1200 2217
1200 2375
1200 2795
1200 3806
1200 3816
1200 4273
1200 4342
1200 4429
1200 4559
1200 4597
1200 4935
1200 4970
1201 1222
1201 1590
1201 1782
1201 1824
1201 2682
1201 3176
1201 3710
1201 3772
1201 3941
1201 4381
1201 4939
1202 1747
1202 2016
1202 2039
1202 2129
1202 2514
1202 2711
1202 3247
1202 3581
1202 4157
1202 4245
1202 4771
1202 4987
1203 1214
1203 1541
1203 1706
1203 2418
1203 3373
1203 3414
1203 3520
1203 3898
1204 1352
1204 2548
1204 2747
1204 2962
1204 3084
1204 3272
1204 4547
1204 4567
1204 4764
1205 1352
1205 1458
1205 1665
1205 2046
1205 2474
1205 2658
1205 2919
1205 3367
1206 1347
1206 2349
1206 2555
1206 2983
1206 3087
1206 4027
1206 4092
1206 4741
1207 1246
1207 1436
1207 1604
1207 1841
1207 2097
1207 2332
1207 3700
1207 3817
1208 1461
1208 2432
1208 2704
1208 2739
1208 2780
1208 3193
1208 3571
1208 3618
1208 3639
1208 3821
1208 4074
1208 4157
1208 4643
1208 4664
1208 4970
1209 1508
1209 2197
1209 2508
1209 2595
1209 3282
1209 3374
1209 4899
1210 1356
1210 2078
1210 3187
1210 4025
1210 4083
1210 4123
1210 4128
1210 4240
1210 4746
1210 4789
1211 1372
1211 1441
1211 1717
1211 2267
1211 2399
1211 2654
1211 3177
1211 3188
1211 3251
1211 3917
1212 1232
1212 1281
1212 1512
1212 1673
1212 2132
1212 2260
1212 2310
1212 2432
1212 2569
1212 2969
1212 2989
1212 3002
1212 3199
1212 3318
1212 3380
1212 3679
1212 3739
1212 4065
1212 4143
1212 4316
1212 4975
1213 1919
1213 1933
1213 1940
1213 2127
1213 2480
1213 2601
1213 3782
1213 4741
1214 1827
1214 1833
1214 2337
1214 3031
1214 3103
1214 3373
1214 3414
1214 3456
1214 3898
1214 4181
1214 4356
1215 1344
1215 1561
1215 2074
1215 2535
1215 2599
1215 3310
1215 3348
1215 3873
1215 3989
1215 4070
1215 4403
1216 1271
1216 1972
1216 2141
1216 2279
1216 2329
1216 2619
1216 2675
1216 2681
1216 2851
1216 3020
1216 3704
1216 3735
1216 3867
1216 4400
1216 4594
1216 4936
1217 1579
1217 1646
1217 1809
1217 2194
1217 2936
1217 3224
1217 4501
1217 4536
1217 4796
1218 1299
1218 1847
1218 2155
1218 2241
1218 3027
1218 4538
1218 4900
1219 1577
1219 1686
1219 2201
1219 2956
1219 3198
1219 4470
1219 4547
1219 4815
1219 4936
1219 4995
1220 1734
1220 2023
1220 2848
1220 3321
1220 3754
1220 4571
1220 4987
1221 1678
1221 1760
1221 2244
1221 2374
1221 2949
1221 3929
1221 4014
1221 4154
1221 4567
1221 4621
1221 4901
1222 1345
1222 1782
1222 1946
1222 2682
1222 3710
1222 4005
1222 4049
1222 4263
1222 4437
1222 4841
1223 1597
1223 1706
1223 1812
1223 2358
1223 2360
1223 2584
1223 3821
1223 4760
1223 4763
1224 1319
1224 1634
1224 2021
1224 2085
1224 2363
1224 3364
1224 3493
1224 3726
1224 4036
1224 4037
1224 4217
1224 4251
1224 4299
1224 4520
1224 4562
1225 1434
1225 1546
1225 3008
1225 3167
1225 3340
1225 3822
1225 4185
1225 4759
1226 1390
1226 1488
1226 1548
1226 1822
1226 2518
1226 2602
1226 2733
1226 3326
1226 3718
1226 4174
1226 4179
1226 4583
1226 4713
1226 4803
1227 1264
1227 1540
1227 1824
1227 2309
1227 2513
1227 2788
1227 3035
1227 3056
1227 3442
1227 4100
1227 4436
1227 4471
1227 4696
1227 4861
1227 4986
1228 1283
1228 1647
1228 2780
1228 2821
1228 3077
1228 3714
1228 3838
1228 3988
1228 4726
1229 1320
1229 1596
1229 1802
1229 1805
1229 1935
1229 2301
1229 2453
1229 2607
1229 2623
1229 2671
1229 2766
1229 2937
1229 2959
1229 3240
1229 3266
1229 3272
1229 3331
1229 3931
1229 4103
1229 4203
1229 4410
1229 4529
1229 4760
1229 4823
1229 4923
1229 4998
1230 1288
1230 1480
1230 1791
1230 2142
1230 2651
1230 2841
1230 3867
1230 3891
1231 1324
1231 1429
1231 1744
1231 1815
1231 1971
1231 2055
1231 2090
1231 2173
1231 4323
1231 4813
1231 4915
1232 1673
1232 2260
1232 2424
1232 3729
1232 4065
1232 4975
1233 1350
1233 1427
1233 1484
1233 1748
1233 1819
1233 1892
1233 1963
1233 2128
1233 2188
1233 2773
1233 2805
1233 2807
1233 2819
1233 2858
1233 3031
1233 3276
1233 3714
1233 4923
1234 1656
1234 1844
1234 2278
1234 2428
1234 2498
1234 2658
1234 3274
1234 3973
1234 4226
1234 4333
1234 4337
1234 4432
1235 1527
1235 1861
1235 2185
1235 3178
1235 3770
1235 4103
1236 2023
1236 2290
1236 3384
1236 3418
1236 4334
1236 4798
1236 4903
1237 1509
1237 1767
1237 2085
1237 2148
1237 2875
1237 2883
1237 3199
1237 4861
1237 4925
1238 1297
1238 1430
1238 2064
1238 2104
1238 2301
1238 2664
1238 2686
1238 3097
1239 1286
1239 1519
1239 1616
1239 2291
1239 3842
1239 3851
1239 4006
1239 4757
1239 4927
1240 1253
1240 2266
1240 2479
1240 3113
1240 4229
1240 4956
1241 1974
1241 2182
1241 2701
1241 2946
1241 3205
1241 3308
1241 3572
1241 3916
1241 4019
1241 4755
1242 1944
1242 2449
1242 2508
1242 3139
1242 3553
1242 4546
1242 4958
1242 4998
1243 1462
1243 2767
1243 2878
1243 3026
1243 3252
1243 3355
1243 4031
1243 4575
1243 4716
1244 2290
1244 2397
1244 2761
1244 2912
1244 3418
1244 3796
1244 3905
1244 4334
1244 4462
1244 4798
1244 4903
1245 1255
1245 1455
1245 1736
1245 1823
1245 1965
1245 1999
1245 2323
1245 3232
1245 3233
1245 3331
1245 3490
1245 3679
1245 4084
1245 4732
1245 4802
1245 4997
1246 1714
1246 1717
1246 2267
1246 3827
1246 4018
1246 4045
1246 4214
1246 4880
1246 4959
1247 1570
1247 1860
1247 2142
1247 2268
1247 2315
1247 2343
1247 2447
1247 2536
1247 2823
1247 2907
1247 3127
1247 3644
1247 3689
1247 3751
1247 3950
1247 4365
1247 4755
1247 4819
1247 4922
1248 1382
1248 1610
1248 1774
1248 2427
1248 2429
1248 2896
1248 3642
1248 3705
1248 3914
1248 4096
1248 4402
1248 4798
1249 1453
1249 1619
1249 1791
1249 2002
1249 2313
1249 2828
1249 3215
1249 3866
1249 4207
1249 4806
1250 1570
1250 1909
1250 1967
1250 2384
1250 2588
1250 2636
1250 3380
1250 3443
1250 3552
1250 4545
1250 4781
1251 1641
1251 2327
1251 2775
1251 3260
1251 3340
1251 3524
1251 3571
1251 3616
1251 4630
1252 1595
1252 1936
1252 2399
1252 3206
1252 3601
1252 3764
1253 1628
1253 2060
1253 2134
1253 2156
1253 2185
1253 2189
1253 2359
1253 2912
1253 2922
1253 3296
1253 3991
1253 4056
1253 4187
1253 4292
1253 4426
1254 1296
1254 1516
1254 1674
1254 1703
1254 1715
1254 2133
1254 2322
1254 2829
1254 3119
1254 3120
1254 3589
1254 4121
1254 4515
1254 4557
1254 4788
1254 4920
1255 1823
1255 1875
1255 2117
1255 3233
1255 3467
1255 4084
1255 4485
1256 1343
1256 2378
1256 2402
1256 2443
1256 2897
1256 3043
1256 3183
1256 3224
1256 3290
1256 3512
1256 3645
1256 4174
1256 4665
1257 1731
1257 2495
1257 2841
1257 3525
1257 4004
1257 4682
1257 4891
1258 1394
1258 1619
1258 2147
1258 2569
1258 2595
1258 2836
1258 3877
1258 4340
1259 2441
1259 2829
1259 3001
1259 3985
1259 4013
1260 1631
1260 1774
1260 3168
1260 3340
1260 3851
1260 3982
1261 1463
1261 1645
1261 1826
1261 2529
1261 2698
1261 3444
1261 3622
1261 3820
1261 4342
1261 4708
1261 4854
1262 1575
1262 2786
1262 3493
1262 3635
1262 3657
1262 3953
1262 4832
1263 1473
1263 1541
1263 1770
1263 1900
1263 1938
1263 2113
1263 2211
1263 2363
1263 2623
1263 2951
1263 2983
1263 3150
1263 3620
1263 4550
1263 4758
1263 4796
1263 4902
1264 1468
1264 1826
1264 2309
1264 2473
1264 2746
1264 2788
1264 3035
1264 3588
1264 4200
1264 4986
1265 1475
1265 1619
1265 1688
1265 1814
1265 2334
1265 2356
1265 2831
1265 3366
1265 3571
1265 3591
1265 3844
1265 3937
1265 4045
1265 4116
1265 4258
1265 4541
1266 1575
1266 1579
1266 2263
1266 2391
1266 2628
1266 2806
1266 2943
1266 3738
1266 3766
1266 3832
1266 4109
1266 4841
1266 4854
1266 4926
1267 1496
1267 1889
1267 2346
1267 2372
1267 2396
1267 3227
1267 3550
1267 3818
1267 4348
1267 4410
1267 4797
1268 1740
1268 1811
1268 1927
1268 2369
1268 2403
1268 2592
1268 2616
1268 2907
1268 3072
1268 3612
1268 3717
1268 4422
1269 1585
1269 1723
1269 1870
1269 1995
1269 2635
1269 2795
1269 2953
1269 3839
1269 3928
1270 1470
1270 1548
1270 2306
1270 2471
1270 2500
1270 2967
1270 3985
1270 4239
1270 4658
1271 1901
1271 2293
1271 3283
1271 3404
1271 3653
1271 4116
1271 4367
1271 4430
1271 4766
1272 1801
1272 2153
1272 2452
1272 2519
1272 2721
1272 2745
1272 2873
1272 2997
1272 3105
1272 3183
1272 3338
1272 3788
1272 4268
1272 4398
1272 4918
1273 1645
1273 3080
1273 3361
1273 3498
1273 3574
1273 3688
1273 3748
1273 4034
1273 4052
1273 4158
1273 4247
1274 1492
1274 2046
1274 2683
1274 3563
1274 4024
1274 4640
1274 4814
1275 1596
1275 3483
1275 4252
1275 4472
1275 4752
1276 1426
1276 1439
1276 1485
1276 1964
1276 2203
1276 2884
1276 3353
1276 4880
1277 1576
1277 1744
1277 1871
1277 2189
1277 2770
1277 3187
1277 3237
1277 3445
1277 3470
1277 3703
1277 4112
1277 4217
1277 4648
1277 4925
1278 2079
1278 2348
1278 2654
1278 2708
1278 2755
1278 2911
1278 3569
1278 3699
1278 3751
1278 4919
1278 4958
1278 4979
1279 1593
1279 2292
1279 2297
1279 2330
1279 3187
1279 3823
1279 4477
1279 4520
1279 4663
1279 4762
1279 4944
1280 1579
1280 1981
1280 2007
1280 2147
1280 4156
1280 4346
1280 4434
1280 4858
1280 4939
1281 1766
1281 2042
1281 2564
1281 3272
1281 3507
1281 3908
1281 4130
1281 4352
1281 4470
1281 4629
1282 1590
1282 1761
1282 1882
1282 2117
1282 2832
1282 3348
1282 3582
1282 3611
1282 3864
1282 3900
1282 4326
1282 4355
1282 4596
1283 1470
1283 1647
1283 1779
1283 3173
1283 3399
1283 3977
1283 4208
1283 4300
1283 4377
1283 4704
1284 1579
1284 1801
1284 1881
1284 1988
1284 2417
1284 2456
1284 2506
1284 2862
1284 3330
1284 3335
1284 3756
1284 3881
1284 4147
1284 4620
1284 4913
1285 1569
1285 2086
1285 2369
1285 2711
1285 2742
1285 2959
1285 3603
1285 4196
1285 4197
1285 4289
1285 4533
1286 1449
1286 1601
1286 1676
1286 1683
1286 2776
1286 3001
1286 3321
1286 3529
1286 3577
1286 3795
1286 3968
1286 4013
1286 4233
1286 4325
1286 4351
1286 4368
1286 4527
1286 4531
1286 4587
1286 4976
1287 1557
1287 1702
1287 2097
1287 2852
1287 2924
1287 3075
1287 3118
1287 3122
1287 4067
1287 4201
1287 4375
1287 4402
1287 4425
1287 4514
1287 4827
1288 1571
1288 1882
1288 1886
1288 2142
1288 2510
1288 3609
1288 3614
1288 4204
1289 1610
1289 1777
1289 2032
1289 2364
1289 2916
1289 4004
1289 4602
1289 4749
1289 4870
1290 1306
1290 1577
1290 1695
1290 2069
1290 2233
1290 2266
1290 2317
1290 2347
1290 3613
1290 3649
1290 4216
1290 4741
1291 1553
1291 2052
1291 2208
1291 2512
1291 3718
1291 4998
1292 1565
1292 1589
1292 1959
1292 1995
1292 2462
1292 2541
1292 2626
1292 3042
1292 3081
1292 3500
1292 3589
1292 3593
1292 3834
1292 3989
1292 4251
1292 4393
1292 4468
1292 4631
1292 4670
1293 2137
1293 2163
1293 2360
1293 2580
1293 3068
1293 3131
1293 3202
1293 3629
1293 3742
1293 3795
1293 3852
1293 4134
1293 4150
1293 4857
1294 1440
1294 2618
1294 2983
1294 3319
1294 3712
1294 3973
1294 4172
1294 4218
1295 1321
1295 3082
1295 3461
1295 3573
1295 3727
1295 3926
1295 4102
1295 4764
1295 4941
1295 4946
1296 1330
1296 1603
1296 1615
1296 1805
1296 1930
1296 2188
1296 2211
1296 2274
1296 2315
1296 2353
1296 2365
1296 2996
1296 3013
1296 3121
1296 4237
1296 4302
1297 1496
1297 2189
1297 2500
1297 2630
1297 3401
1297 4321
1298 1408
1298 1514
1298 2004
1298 2123
1298 2303
1298 2664
1298 2726
1298 2890
1298 4146
1298 4489
1298 4656
1299 2630
1299 2699
1299 2925
1299 3141
1299 3721
1299 3859
1299 4044
1299 4117
1299 4310
1299 4506
1299 4538
1299 4801
1299 4816
1299 4867
1300 1583
1300 1651
1300 1671
1300 2149
1300 2760
1300 2917
1300 3740
1300 3846
1300 4014
1300 4565
1300 4618
1300 4706
1300 4760
1300 4896
1300 4907
1301 1533
1301 1615
1301 2095
1301 2328
1301 2470
1301 2478
1301 3721
1301 4626
1301 4803
1301 4925
1301 4968
1302 1468
1302 1705
1302 1996
1302 2159
1302 2394
1302 2791
1302 2993
1302 3144
1302 3345
1302 3473
1302 3531
1302 3566
1302 3951
1302 4062
1302 4256
1302 4488
1303 1856
1303 2161
1303 2377
1303 2544
1303 2757
1303 3130
1303 3307
1303 3362
1303 4914
1303 4966
1304 1400
1304 1458
1304 2595
1304 2623
1304 3124
1304 3389
1304 3709
1304 3736
1304 3815
1304 4734
1304 4836
1305 1689
1305 1741
1305 2127
1305 2963
1305 3289
1305 3570
1305 4067
1305 4882
1306 1782
1306 2383
1306 2677
1306 3130
1306 3286
1306 3453
1306 3935
1306 4339
1306 4341
1306 4922
1307 1652
1307 1681
1307 2037
1307 2428
1307 2498
1307 2499
1307 4333
1307 4337
1307 4468
1307 4992
1308 1444
1308 1716
1308 2059
1308 2335
1308 2738
1308 2983
1308 3560
1308 4120
1308 4160
1309 2382
1309 2827
1309 3224
1309 3552
1309 3597
1309 3931
1309 3990
1309 4162
1309 4596
1309 4695
1309 4832
1309 4885
1310 1538
1310 1541
1310 1690
1310 2350
1310 2472
1310 2707
1310 3245
1310 3562
1310 3640
1310 3758
1310 4540
1311 1876
1311 2542
1311 3840
1311 4221
1311 4409
1311 4472
1311 4520
1311 4624
1312 1428
1312 1500
1312 1743
1312 1810
1312 1815
1312 2009
1312 2106
1312 2270
1312 2852
1312 2863
1312 3169
1312 3395
1312 3481
1312 3552
1312 3759
1312 3767
1312 4193
1312 4197
1312 4284
1312 4502
1312 4739
1312 4865
1313 1427
1313 1828
1313 1989
1313 2167
1313 2554
1313 2638
1313 2872
1313 3181
1313 3677
1313 4851
1313 4963
1314 1427
1314 1828
1314 2681
1314 3068
1314 3070
1314 4070
1314 4791
1314 4851
1315 1328
1315 2532
1315 2622
1315 3269
1315 3592
1315 4735
1316 1468
1316 2771
1316 3148
1316 3156
1316 3349
1316 3828
1316 3893
1316 4356
1316 4945
1316 4980
1317 1325
1317 1345
1317 1758
1317 1883
1317 2249
1317 2625
1317 2688
1317 2704
1317 2936
1317 3257
1317 3551
1317 3564
1317 3644
1317 4318
1317 4472
1318 1412
1318 2109
1318 2675
1318 3294
1318 4166
1318 4839
1318 4860
1318 4976
1319 1388
1319 1538
1319 2021
1319 2085
1319 2392
1319 2667
1319 3243
1319 3258
1319 3790
1319 3867
1319 4036
1319 4776
1320 1541
1320 1587
1320 1598
1320 1923
1320 2336
1320 2345
1320 2408
1320 2434
1320 2850
1320 3122
1320 3345
1320 4048
1320 4072
1320 4371
1320 4507
1320 4573
1320 4951
1321 2011
1321 2227
1321 2276
1321 2531
1321 2962
1321 3082
1321 3150
1321 3452
1321 3461
1321 3517
1321 3544
1321 3573
1321 3898
1321 4313
1321 4764
1321 4941
1321 4953
1322 1712
1322 2217
1322 2871
1322 3972
1322 4879
1323 2331
1323 2636
1323 2991
1323 3092
1323 3670
1323 3742
1323 4605
1323 4607
1323 4849
1324 1570
1324 1920
1324 2790
1324 2838
1324 3169
1324 3214
1324 3540
1324 3608
1324 3859
1324 3895
1324 4164
1325 1403
1325 1515
1325 1750
1325 2072
1325 2192
1325 2258
1325 3726
1325 3803
1325 4302
1326 2036
1326 2108
1326 2271
1326 2649
1326 2830
1326 4690
1326 4704
1326 4931
1327 1329
1327 1690
1327 1864
1327 3245
1327 3536
1327 3562
1327 3758
1327 3797
1328 1366
1328 1421
1328 1944
1328 2132
1328 2622
1328 3160
1328 3269
1328 3309
1328 3477
1328 3592
1328 3705
1328 4712
1328 4735
1329 1437
1329 1900
1329 2098
1329 2269
1329 2487
1329 3016
1329 3169
1329 3258
1329 3350
1329 3673
1329 4072
1329 4235
1329 4242
1329 4846
1329 4905
1330 1631
1330 2197
1330 2549
1330 2695
1330 2716
1330 2907
1330 3123
1330 3439
1330 3804
1330 4101
1330 4220
1330 4278
1330 4404
1330 4507
1331 1378
1331 2116
1331 2195
1331 2436
1331 2895
1331 3551
1331 4405
1331 4610
1332 1798
1332 1839
1332 2930
1332 3468
1332 3520
1332 3842
1332 4012
1332 4188
1332 4490
1332 4940
1333 1770
1333 1890
1333 2239
1333 2315
1333 2856
1333 3148
1333 3219
1333 3349
1333 4058
1333 4183
1333 4396
1333 4613
1334 1544
1334 2995
1334 3170
1334 3456
1334 3518
1334 3867
1334 3881
1334 4305
1334 4747
1335 1725
1335 2385
1335 3291
1335 3833
1335 4138
1335 4164
1335 4329
1335 4448
1335 4998
1336 1852
1336 1991
1336 2171
1336 2430
1336 2854
1336 3354
1336 4293
1336 4603
1337 1670
1337 1747
1337 1769
1337 2005
1337 2472
1337 2745
1337 2903
1337 4580
1338 1434
1338 1441
1338 1516
1338 1723
1338 2073
1338 2544
1338 2860
1338 2965
1338 3012
1338 3611
1338 4338
1338 4891
1338 4924
1339 1406
1339 1833
1339 1837
1339 2552
1339 2782
1339 2968
1339 3102
1339 3292
1339 3608
1339 3787
1339 3804
1339 4956
1340 1414
1340 1618
1340 1809
1340 2253
1340 2300
1340 2302
1340 2890
1340 3010
1340 3070
1340 3080
1340 3547
1340 3615
1340 3849
1340 4033
1340 4190
1340 4357
1340 4962
1341 1564
1341 2183
1341 2994
1341 3223
1341 3568
1341 3669
1341 3838
1342 1860
1342 2454
1342 2462
1342 2619
1342 2882
1342 2908
1342 2987
1342 3314
1342 3530
1342 3534
1343 1518
1343 2282
1343 2708
1343 2886
1343 3613
1343 3676
1343 3831
1343 4035
1343 4536
1343 4616
1344 1370
1344 1371
1344 1962
1344 2074
1344 2256
1344 2535
1344 2599
1344 2838
1344 2896
1344 2940
1344 3293
1344 3310
1344 4070
1344 4099
1344 4729
1344 4764
1345 1723
1345 2169
1345 2249
1345 2274
1345 2688
1345 2993
1345 3177
1345 3564
1345 4845
1346 1530
1346 1531
1346 1614
1346 1641
1346 2032
1346 2054
1346 2772
1346 3050
1346 3163
1346 3268
1346 3412
1346 3430
1346 3630
1346 3649
1346 3740
1346 3890
1346 4029
1346 4219
1346 4464
1347 1423
1347 1438
1347 1767
1347 1868
1347 1881
1347 2301
1347 2507
1347 2645
1347 2708
1347 2755
1347 3087
1347 3253
1347 3438
1347 3618
1347 3814
1347 4027
1347 4092
1347 4432
1347 4844
1348 1597
1348 2309
1348 2393
1348 2456
1348 3047
1348 3439
1348 3505
1348 4354
1348 4638
1348 4902
1349 1542
1349 2362
1349 2827
1349 3200
1349 3703
1350 1555
1350 1765
1350 2051
1350 2400
1350 2483
1350 3526
1351 1468
1351 2243
1351 2748
1351 2913
1351 3737
1351 3901
1351 4347
1351 4538
1351 4887
1352 1665
1352 1753
1352 2198
1352 2461
1352 2630
1352 2658
1352 2787
1352 2890
1352 2919
1352 3094
1352 3199
1352 3348
1352 3367
1352 3376
1352 3710
1352 3839
1352 4178
1352 4753
1352 4798
1352 4965
1353 1636
1353 1789
1353 2079
1353 2142
1353 2644
1353 3257
1353 3571
1353 3632
1353 3641
1353 3665
1353 3779
1353 3981
1353 4308
1353 4655
1353 4806
1354 1613
1354 1861
1354 1866
1354 2089
1354 2251
1354 2404
1354 2610
1354 4011
1354 4175
1354 4656
1355 1736
1355 2051
1355 2845
1355 3095
1355 3388
1355 3969
1355 4048
1355 4348
1356 1484
1356 2353
1356 3114
1356 3921
1356 4055
1356 4128
1356 4240
1356 4600
1356 4746
1357 1398
1357 1410
1357 1634
1357 2289
1357 2357
1357 2499
1357 2634
1357 2977
1357 3472
1357 3552
1357 3748
1357 4153
1357 4879
1358 1416
1358 1767
1358 1809
1358 1999
1358 2633
1358 2781
1358 3343
1358 3640
1358 3662
1358 3670
1358 3725
1358 3915
1358 3959
1358 4146
1358 4447
1358 4511
1359 1535
1359 2006
1359 2297
1359 2304
1359 2778
1359 3073
1359 3080
1359 3191
1359 3928
1359 3972
1359 4307
1359 4376
1359 4677
1359 4703
1359 4875
1359 4970
1360 1716
1360 1982
1360 2549
1360 2903
1360 2923
1360 3631
1360 4477
1360 4873
1361 1548
1361 1754
1361 1826
1361 1952
1361 3374
1361 3409
1361 3666
1361 4147
1361 4187
1361 4412
1361 4641
1362 1591
1362 1652
1362 1691
1362 1809
1362 1929
1362 1981
1362 2938
1362 3018
1362 3296
1362 3559
1362 3708
1362 3749
1362 3874
1362 3891
1362 4193
1362 4874
1363 1366
1363 1733
1363 2189
1363 2281
1363 2934
1363 2998
1363 4881
1364 2054
1364 2130
1364 2173
1364 2263
1364 2493
1364 2848
1364 2968
1364 3158
1364 3922
1364 3925
1364 4061
1364 4198
1364 4297
1364 4795
1365 1500
1365 1613
1365 1783
1365 2867
1365 3606
1365 3879
1365 4616
1365 4663
1365 4970
1366 1608
1366 1705
1366 2352
1366 2622
1366 2886
1366 2984
1366 3056
1366 3068
1366 3269
1366 3592
1366 3767
1366 3923
1366 4059
1366 4307
1366 4469
1366 4735
1367 2368
1367 2953
1367 3125
1367 3873
1367 4063
1367 4124
1367 4459
1367 4689
1368 1490
1368 1537
1368 2216
1368 2277
1368 2371
1368 2441
1368 3209
1368 3755
1368 3821
1368 3999
1368 4081
1368 4089
1368 4190
1368 4812
1369 1396
1369 1778
1369 1900
1369 2113
1369 2284
1369 2473
1369 2780
1369 2790
1369 3098
1369 3165
1369 3181
1369 3242
1369 3385
1369 3546
1369 3850
1369 3967
1369 4192
1369 4444
1369 4525
1369 4587
1369 4641
1369 4869
1370 1590
1370 1870
1370 1949
1370 2713
1370 3138
1370 4952
1371 2074
1371 2535
1371 2830
1371 3310
1371 4070
1372 1741
1372 2133
1372 2369
1372 2490
1372 3448
1372 3876
1372 4873
1373 2419
1373 2616
1373 3097
1373 3146
1373 3702
1373 3822
1373 4129
1373 4137
1373 4210
1373 4429
1374 1578
1374 1864
1374 2089
1374 2216
1374 2299
1374 3255
1374 3302
1374 3858
1374 4159
1374 4655
1375 1441
1375 1559
1375 1686
1375 2128
1375 2171
1375 2370
1375 2685
1375 3880
1375 4078
1375 4753
1376 1399
1376 1825
1376 2748
1376 4347
1376 4684
1377 1734
1377 1775
1377 1997
1377 2572
1377 2884
1377 2921
1377 3273
1377 3310
1377 3333
1377 3337
1377 3413
1377 3429
1377 3553
1377 3907
1377 4043
1377 4242
1377 4303
1377 4388
1377 4539
1377 4749
1378 1400
1378 1642
1378 2116
1378 2125
1378 2195
1378 2895
1378 3519
1378 4022
1378 4405
1379 1645
1379 1671
1379 2558
1379 2753
1379 2891
1379 3008
1379 3166
1379 3839
1379 3989
1379 3999
1379 4077
1379 4702
1380 1803
1380 1978
1380 1987
1380 1991
1380 2177
1380 2198
1380 2548
1380 2703
1380 2724
1380 2756
1380 2811
1380 3392
1380 3860
1380 3910
1380 4325
1380 4331
1380 4747
1380 4889
1380 4942
1381 1393
1381 1418
1381 1466
1381 1634
1381 1652
1381 2235
1381 2644
1381 2807
1381 3153
1381 3201
1381 3391
1381 3595
1381 4138
1381 4537
1381 4926
1382 1476
1382 2427
1382 3416
1382 3455
1382 3914
1382 4052
1382 4402
1383 1704
1383 1762
1383 1763
1383 2063
1383 2117
1383 2537
1383 2610
1383 2644
1383 2897
1383 3117
1383 3172
1383 3641
1383 3998
1383 4108
1383 4336
1383 4553
1383 4589
1383 4658
1383 4810
1384 1938
1384 2048
1384 2186
1384 2578
1384 2780
1384 2930
1384 2941
1384 3158
1384 3201
1384 3881
1384 4136
1384 4297
1385 1991
1385 2164
1385 2951
1385 3838
1385 4950
1385 4977
1386 1443
1386 1544
1386 1803
1386 2500
1386 2630
1386 2697
1386 2927
1386 3063
1386 3401
1386 3612
1386 3729
1386 3784
1386 3969
1386 4159
1386 4321
1386 4969
1387 1577
1387 1810
1387 2327
1387 2777
1387 2822
1387 3161
1387 3521
1387 3685
1387 3687
1387 3719
1387 4577
1388 1434
1388 1688
1388 2174
1388 2184
1388 2649
1388 2948
1388 3340
1388 3930
1388 4129
1388 4457
1388 4759
1389 1882
1389 1917
1389 2018
1389 2172
1389 4046
1389 4162
1389 4311
1389 4509
1389 4841
1390 1519
1390 1927
1390 2164
1390 2518
1390 2733
1390 3327
1390 4179
1391 1599
1391 1897
1391 2533
1391 2582
1391 3083
1391 3259
1391 3399
1391 3427
1391 3639
1391 3896
1392 1881
1392 2417
1392 2546
1392 3756
1392 3888
1392 4620
1393 2061
1393 2295
1393 2437
1394 1419
1394 2223
1394 2251
1394 2341
1394 2537
1394 2762
1394 3341
1394 3370
1394 3420
1394 3821
1394 4302
1394 4340
1394 4582
1394 4728
1395 1580
1395 2211
1395 2606
1395 3834
1395 4041
1395 4191
1395 4444
1395 4552
1395 4635
1395 4777
1396 3165
1396 3242
1396 3385
1396 3850
1396 4551
1397 1455
1397 1488
1397 1744
1397 2391
1397 2560
1397 3134
1397 4458
1397 4743
1397 4872
1397 4892
1398 1433
1398 1806
1398 1986
1398 2017
1398 2517
1398 2580
1398 3150
1398 3737
1398 4072
1398 4392
1398 4708
1399 1478
1399 2012
1399 2312
1399 2867
1399 3131
1399 3336
1399 3551
1399 3778
1399 3873
1399 4114
1399 4707
1400 2024
1400 2595
1400 2970
1400 3124
1400 4677
1400 4734
1401 1900
1401 2142
1401 2667
1401 2907
1401 3152
1401 3570
1401 3644
1401 3729
1401 4410
1401 4819
1401 4882
1402 1881
1402 2054
1402 2753
1402 2972
1402 4620
1402 4668
1403 1458
1403 1541
1403 2005
1403 2220
1403 2320
1403 2550
1403 2609
1403 2774
1403 3110
1403 3316
1403 3487
1403 4206
1403 4702
1404 1570
1404 1654
1404 1686
1404 2128
1404 2370
1404 2685
1404 3431
1404 3726
1404 3880
1404 4078
1404 4347
1405 1736
1405 1974
1405 2463
1405 2975
1405 3092
1405 4244
1405 4421
1405 4867
1405 4962
1406 1537
1406 1774
1406 2043
1406 2063
1406 2234
1406 2791
1406 2851
1406 2890
1406 2988
1406 3065
1406 3873
1406 3936
1406 4079
1406 4293
1406 4419
1406 4592
1406 4673
1406 4741
1406 4997
1407 2067
1407 2209
1407 2221
1407 2649
1407 3315
1407 3756
1407 4529
1407 4932
1408 1644
1408 2323
1408 2696
1408 2726
1408 4773
1409 1653
1409 1654
1409 2005
1409 2267
1409 2641
1409 3251
1409 3827
1409 4214
1409 4605
1409 4683
1410 1653
1410 2357
1410 2523
1410 3254
1410 3370
1410 3472
1410 3551
1410 4153
1410 4518
1410 4964
1411 1744
1411 2257
1411 3860
1411 3978
1411 4005
1411 4573
1411 4837
1412 1439
1412 1825
1412 3095
1412 3160
1412 3581
1412 3990
1412 4238
1412 4397
1413 1753
1413 2391
1413 2395
1413 2560
1413 2778
1413 3039
1413 3134
1413 3237
1413 3356
1413 3752
1414 1654
1414 1811
1414 2034
1414 2161
1414 2940
1414 3558
1414 3998
1415 2141
1415 2621
1415 3090
1415 3124
1415 3586
1415 3614
1415 4308
1415 4687
1415 4810
1415 4815
1416 1691
1416 1891
1416 2070
1416 2140
1416 2310
1416 3678
1416 4008
1416 4418
1416 4788
1417 1934
1417 2941
1417 3748
1417 3941
1417 4460
1417 4703
1418 1504
1418 1653
1418 1815
1418 2138
1418 2170
1418 2348
1418 2401
1418 2480
1418 2492
1418 2673
1418 2725
1418 2731
1418 3005
1418 3068
1418 3583
1418 3674
1418 3768
1418 3883
1418 3889
1418 4086
1418 4133
1418 4144
1418 4149
1418 4163
1418 4338
1418 4429
1418 4445
1418 4593
1418 4626
1418 4761
1418 4798
1418 4848
1419 2085
1419 2223
1419 2525
1419 2658
1419 2885
1419 3715
1419 4026
1419 4188
1419 4340
1419 4513
1419 4582
1420 1658
1420 1730
1420 1793
1420 2044
1420 3014
1420 3125
1420 3135
1420 3229
1420 3326
1420 3376
1420 3565
1420 3873
1420 3890
1420 4465
1421 1609
1421 1944
1421 2676
1421 2908
1421 3164
1421 3264
1421 3539
1421 4421
1422 1731
1422 1749
1422 1768
1422 1907
1422 2005
1422 2080
1422 2116
1422 2175
1422 2307
1422 2493
1422 3095
1422 3304
1422 3638
1422 3819
1422 4172
1422 4190
1422 4256
1422 4407
1422 4638
1422 4856
1422 4883
1422 4904
1422 4911
1422 4967
1423 2105
1423 2212
1423 2529
1423 3461
1423 3609
1423 4864
1424 1442
1424 1698
1424 1804
1424 2510
1424 2836
1424 3179
1424 3682
1424 4443
1424 4501
1424 4811
1425 1712
1425 1795
1425 2130
1425 2301
1425 2477
1425 2955
1425 4054
1426 1485
1426 1964
1426 2830
1426 3185
1426 3346
1426 3395
1426 4111
1426 4880
1427 1641
1427 1801
1427 1828
1427 2178
1427 2447
1427 2530
1427 2554
1427 2638
1427 2881
1427 2913
1427 2932
1427 3181
1427 3459
1427 3655
1427 3836
1427 3941
1427 4741
1427 4851
1427 4882
1427 4898
1428 1500
1428 1707
1428 3481
1428 3867
1428 4284
1429 1474
1429 1513
1429 2239
1429 4246
1429 4378
1429 4829
1430 1665
1430 2005
1430 2104
1430 2164
1430 2254
1430 2276
1430 2301
1430 2389
1430 2499
1430 2524
1430 2742
1430 2823
1430 4313
1431 2019
1431 2571
1431 2715
1431 2807
1431 2876
1431 3198
1431 3214
1431 4634
1432 2051
1432 2845
1432 3388
1432 3606
1432 3826
1432 3969
1432 4491
1432 4641
1432 4684
1432 4702
1433 1655
1433 1724
1433 2476
1433 3460
1433 3880
1433 4020
1433 4301
1434 1439
1434 2184
1434 2272
1434 2516
1434 2561
1434 3094
1434 3167
1434 3298
1434 3500
1434 4203
1434 4240
1434 4759
1435 1634
1435 1677
1435 1718
1435 2286
1435 2305
1435 3001
1435 3379
1435 3789
1435 3919
1435 3935
1435 4790
1436 2140
1436 2808
1436 3029
1436 3658
1436 3972
1436 4184
1436 4494
1436 4749
1437 2647
1437 3027
1437 3673
1437 4242
1438 1589
1438 2267
1438 2707
1438 2768
1438 3887
1438 3924
1438 3944
1438 4221
1439 2080
1439 2267
1439 2909
1439 3581
1439 3938
1439 3990
1439 4000
1439 4397
1440 1738
1440 2306
1440 3187
1440 3240
1440 3712
1440 3799
1440 3973
1440 4218
1440 4301
1440 4365
1440 4559
1440 4959
1441 1723
1441 2073
1441 2144
1441 2466
1441 2787
1441 2860
1441 2986
1441 3611
1441 3726
1441 3738
1441 4107
1441 4338
1441 4904
1442 2050
1442 2374
1442 2510
1442 3502
1442 4018
1442 4409
1443 1736
1443 1852
1443 2523
1443 2665
1443 2865
1443 2933
1443 3104
1443 3324
1443 3647
1443 3948
1443 4453
1443 4547
1444 1716
1444 1811
1444 2335
1444 2484
1444 3560
1444 3934
1445 1517
1445 1566
1445 1584
1445 1726
1445 2444
1445 2613
1445 2867
1445 3067
1445 3514
1445 3535
1445 3820
1445 4005
1445 4059
1445 4327
1445 4386
1445 4415
1445 4477
1446 1564
1446 2669
1446 3858
1446 4014
1446 4159
1446 4480
1446 4938
1447 2240
1447 2798
1447 2832
1447 2956
1447 2963
1447 3092
1447 3291
1447 3516
1447 3642
1447 3781
1447 4247
1447 4258
1447 4309
1447 4740
1447 4993
1448 1686
1448 2080
1448 2519
1448 2664
1448 3445
1448 3485
1448 3723
1448 4416
1448 4553
1448 4637
1449 2552
1449 2776
1449 2806
1449 2994
1449 4013
1449 4370
1449 4471
1449 4527
1450 1829
1450 2487
1450 2658
1450 2772
1450 3175
1450 3176
1450 3215
1450 3939
1450 4232
1450 4296
1450 4545
1450 4686
1450 4916
1451 1816
1451 1928
1451 2066
1451 2120
1451 2450
1451 2483
1451 3085
1451 3411
1452 1511
1452 1976
1452 2128
1452 3069
1452 3084
1452 3606
1453 1554
1453 1669
1453 1737
1453 2106
1453 2311
1453 2439
1453 2490
1453 2525
1453 2570
1453 2961
1453 3052
1453 3344
1453 3500
1453 3620
1453 3692
1453 4069
1453 4081
1453 4373
1453 4506
1453 4964
1454 1618
1454 1912
1454 2081
1454 2491
1454 2507
1454 2520
1454 2671
1454 3016
1454 3032
1454 3164
1454 3387
1454 4092
1455 2012
1455 2062
1455 2570
1455 2664
1455 2921
1455 3025
1455 3128
1455 3131
1455 3301
1455 3426
1455 3441
1455 3730
1455 4097
1455 4132
1455 4142
1455 4273
1455 4396
1455 4665
1455 4709
1455 4776
1455 4842
1456 1627
1456 1873
1456 1943
1456 2244
1456 3616
1456 4156
1456 4283
1456 4701
1456 4961
1457 1643
1457 1891
1457 2018
1457 3764
1457 4030
1457 4668
1458 1628
1458 1656
1458 1664
1458 2296
1458 2320
1458 2671
1458 2937
1458 3173
1458 3727
1458 3858
1459 1485
1459 1690
1459 2403
1459 2788
1459 3139
1459 3425
1459 3804
1459 4378
1459 4532
1459 4533
1459 4588
1460 1569
1460 1808
1460 2005
1460 2086
1460 2579
1460 2675
1460 3947
1460 3968
1460 4068
1460 4146
1460 4479
1460 4532
1461 1643
1461 2115
1461 2168
1461 2429
1461 3216
1461 3258
1461 3279
1461 3609
1461 4030
1461 4202
1461 4237
1461 4415
1461 4682
1461 4888
1462 1669
1462 1678
1462 2131
1462 2364
1462 2712
1462 2878
1462 3026
1462 3219
1462 3378
1462 3576
1462 3729
1462 4125
1462 4145
1462 4575
1462 4716
1462 4797
1463 1645
1463 1826
1463 2529
1463 2909
1463 3419
1463 3541
1463 4616
1463 4708
1464 1646
1464 2362
1464 2925
1464 3034
1464 3200
1464 4197
1464 4227
1464 4588
1465 1671
1465 1820
1465 2715
1465 3852
1465 4176
1465 4191
1465 4781
1466 1623
1466 1701
1466 1782
1466 2017
1466 2103
1466 2181
1466 2306
1466 2369
1466 2646
1466 2700
1466 2722
1466 2913
1466 3156
1466 3210
1466 3493
1466 3652
1466 4023
1466 4262
1466 4276
1466 4370
1466 4577
1466 4597
1466 4674
1466 4816
1466 4866
1467 1499
1467 1531
1467 2285
1467 2525
1467 2631
1467 3360
1467 3394
1467 3438
1467 3525
1467 3617
1467 4603
1467 4618
1467 4998
1468 1720
1468 1791
1468 2013
1468 3010
1468 3063
1468 3148
1468 3156
1468 3532
1468 3622
1468 3828
1468 4312
1468 4323
1468 4356
1468 4383
1468 4404
1468 4945
1469 1688
1469 2324
1469 2947
1469 3291
1469 3409
1469 4187
1469 4222
1470 2010
1470 2245
1470 2268
1470 2388
1470 2471
1470 2652
1470 2967
1470 3166
1470 3516
1470 3641
1470 3735
1470 3752
1470 3766
1470 3962
1470 4046
1470 4114
1470 4239
1470 4322
1470 4328
1470 4412
1470 4541
1470 4806
1471 1838
1471 2745
1471 3452
1471 3711
1471 4090
1471 4625
1471 4879
1472 1812
1472 2608
1472 2915
1472 3331
1472 3338
1472 3474
1472 3722
1472 3735
1473 1906
1473 2084
1473 2173
1473 2252
1473 2379
1473 3129
1473 3150
1473 3364
1473 3574
1473 3932
1473 4034
1473 4066
1473 4077
1473 4153
1473 4212
1473 4257
1473 4267
1473 4540
1473 4609
1473 4659
1473 4968
1473 4992
1474 1592
1474 1799
1474 1959
1474 2192
1474 2219
1474 2739
1474 2784
1474 3177
1474 3215
1474 4095
1475 1707
1475 2011
1475 2571
1475 2713
1475 3224
1475 3588
1475 3859
1475 3974
1475 4151
1475 4280
1475 4455
1475 4578
1475 4725
1475 4765
1475 4808
1476 2451
1476 2680
1476 2857
1476 3106
1476 3228
1476 3556
1476 3939
1476 4262
1476 4358
1476 4596
1476 4707
1477 1659
1477 1993
1477 2863
1477 3344
1477 3353
1477 3567
1477 4134
1477 4255
1477 4760
1477 4775
1478 1751
1478 2930
1478 2932
1478 3757
1478 3864
1478 3957
1478 3991
1479 1786
1479 2132
1479 3041
1479 3090
1479 3261
1479 3418
1479 3917
1479 3961
1479 4131
1479 4168
1479 4237
1479 4352
1479 4479
1479 4662
1479 4691
1479 4985
1480 3119
1480 3252
1480 3444
1480 3659
1480 3757
1480 4160
1480 4607
1480 4807
1481 2140
1481 2226
1481 2808
1481 2889
1481 3029
1481 3077
1481 3635
1481 3658
1481 3972
1481 4320
1481 4617
1481 4749
1482 2159
1482 2821
1482 3091
1482 3239
1482 3361
1482 3743
1482 3748
1482 4052
1483 1569
1483 1960
1483 2027
1483 2097
1483 2275
1483 2452
1483 2662
1483 2792
1483 4205
1483 4431
1483 4699
1483 4846
1484 2067
1484 2493
1484 2805
1484 2807
1484 3821
1484 4958
1485 1964
1485 2347
1485 3353
1485 3896
1485 4268
1485 4444
1485 4880
1486 1735
1486 2761
1486 3237
1486 3442
1486 4136
1486 4512
1486 4681
1486 4962
1487 1669
1487 1715
1487 2251
1487 2503
1487 2677
1487 2968
1487 3083
1487 3652
1487 3950
1487 4059
1487 4528
1487 4544
1487 4989
1488 1499
1488 1727
1488 1834
1488 2324
1488 2512
1488 2518
1488 2974
1488 3264
1488 4744
1489 1700
1489 2080
1489 3090
1489 3864
1489 4070
1489 4407
1489 4427
1489 4572
1489 4685
1490 1711
1490 1793
1490 1877
1490 2071
1490 2099
1490 2138
1490 2158
1490 2216
1490 2277
1490 2364
1490 2486
1490 2735
1490 3733
1490 3755
1490 3795
1490 3821
1490 4089
1490 4197
1491 1871
1491 2153
1491 2273
1491 3913
1491 4192
1491 4403
1491 4456
1491 4914
1491 4997
1492 1587
1492 1671
1492 1783
1492 1894
1492 2155
1492 2474
1492 2971
1492 3057
1492 3302
1492 3354
1492 3358
1492 3370
1492 3805
1492 3894
1492 4005
1492 4117
1492 4166
1492 4358
1492 4476
1492 4691
1492 4907
1493 1565
1493 1752
1493 2477
1493 2479
1493 3146
1493 3267
1493 3751
1493 3972
1493 4807
1494 2147
1494 2213
1494 2395
1494 2578
1494 2855
1494 3095
1494 3145
1494 3596
1494 3774
1494 3775
1494 4010
1494 4319
1494 4361
1494 4410
1494 4412
1494 4414
1494 4438
1494 4702
1494 4717
1495 1543
1495 1556
1495 1592
1495 1629
1495 1755
1495 1893
1495 1989
1495 2217
1495 2218
1495 2235
1495 2310
1495 2545
1495 2714
1495 2837
1495 3249
1495 3536
1495 3843
1495 4717
1495 4954
1496 1861
1496 2396
1496 2429
1496 2543
1496 2544
1496 4410
1496 4867
1497 1563
1497 1772
1497 1969
1497 3398
1497 3625
1497 3726
1497 4182
1497 4424
1497 4660
1498 1721
1498 1915
1498 3563
1498 3783
1498 4269
1498 4419
1498 4804
1498 4913
1499 1531
1499 1947
1499 2170
1499 2285
1499 2631
1499 2711
1499 3360
1499 3408
1499 3438
1499 3656
1499 3866
1499 4618
1499 4853
1500 1612
1500 2167
1500 3921
1500 4284
1500 4865
1500 4918
1501 1689
1501 1773
1501 1800
1501 2065
1501 2128
1501 2414
1501 2469
1501 2758
1501 2774
1501 2859
1501 3408
1501 3486
1501 3520
1501 3648
1501 3853
1501 4163
1501 4195
1501 4210
1501 4430
1501 4533
1501 4536
1501 4655
1501 4727
1501 4791
1501 4867
1501 4899
1502 1725
1502 2293
1502 2706
1502 3359
1502 3500
1502 3509
1502 3713
1502 3993
1502 4078
1502 4115
1502 4550
1502 4697
1503 1962
1503 2061
1503 2143
1503 2274
1503 2392
1503 3655
1503 3805
1503 3865
1503 4026
1503 4164
1504 1573
1504 1612
1504 1707
1504 2138
1504 2145
1504 2170
1504 2492
1504 2673
1504 2916
1504 3068
1504 3187
1504 3211
1504 3685
1504 3768
1504 4086
1504 4133
1504 4445
1504 4468
1504 4761
1504 4926
1505 1794
1505 1882
1505 2013
1505 2387
1505 2752
1505 2781
1505 3240
1505 3244
1505 3794
1505 4792
1505 4811
1505 4919
1506 1913
1506 1945
1506 2624
1506 3237
1506 3305
1506 3442
1506 3799
1506 4512
1506 4703
1506 4962
1507 1550
1507 1690
1507 1756
1507 2531
1507 2954
1507 3414
1507 3455
1507 3517
1507 3961
1507 3965
1507 4047
1507 4826
1507 4860
1508 1744
1508 2102
1508 2514
1508 3135
1508 4096
1508 4244
1509 1513
1509 3497
1509 3825
1509 4297
1509 4329
1509 4478
1509 4584
1510 1878
1510 2294
1510 2381
1510 3201
1510 3728
1510 4113
1510 4822
1511 1630
1511 1976
1511 2160
1511 2442
1511 2697
1511 2791
1511 3069
1511 3084
1511 3289
1511 3432
1511 3746
1511 4063
1511 4885
1511 4990
1512 1649
1512 1892
1512 2043
1512 2053
1512 2125
1512 2155
1512 2833
1512 3177
1512 3972
1512 4623
1512 4632
1512 4894
1513 2075
1513 2264
1513 2269
1513 3011
1513 3295
1513 3474
1513 3497
1513 3714
1513 3739
1513 3825
1513 4187
1513 4222
1513 4517
1513 4610
1513 4690
1514 1637
1514 2145
1514 2303
1514 2391
1514 2726
1514 3024
1514 3881
1514 4027
1514 4932
1515 1925
1515 2082
1515 2555
1515 2676
1515 2773
1515 2867
1515 3025
1515 3034
1515 3726
1515 3762
1515 3799
1515 3803
1515 3836
1515 3942
1516 1635
1516 1674
1516 1935
1516 2322
1516 2492
1516 2499
1516 3132
1516 4788
1517 1556
1517 1759
1517 3067
1517 3228
1517 3820
1517 4477
1517 4689
1518 2613
1518 3235
1518 3304
1518 3436
1518 3967
1518 4213
1518 4784
1518 4832
1519 1560
1519 2291
1519 2749
1519 2938
1519 3114
1519 3498
1519 4045
1519 4047
1519 4104
1520 1580
1520 1795
1520 2892
1520 3687
1521 2141
1521 2911
1521 3372
1521 4107
1521 4492
1521 4573
1522 1939
1522 2079
1522 2205
1522 2877
1522 3176
1522 3177
1522 3217
1522 3365
1522 3479
1522 4080
1522 4110
1522 4439
1522 4474
1523 1946
1523 1983
1523 2633
1523 3091
1523 3463
1523 3976
1523 4158
1523 4191
1523 4494
1523 4848
1524 1606
1524 1695
1524 1741
1524 1812
1524 1949
1524 1961
1524 2470
1524 2540
1524 2877
1524 2997
1524 3099
1524 3162
1524 3189
1524 3299
1524 3408
1524 3565
1524 3679
1524 3865
1524 4195
1525 1699
1525 1854
1525 1940
1525 2294
1525 3316
1525 3580
1525 3757
1525 3817
1526 2144
1526 2208
1526 3184
1526 3618
1526 3718
1526 3952
1526 4998
1527 1743
1527 1963
1527 2185
1527 2549
1527 2668
1527 3770
1528 1864
1528 2099
1528 2356
1528 3351
1528 3462
1528 3880
1528 4935
1529 1816
1529 1946
1529 2199
1529 2204
1529 2452
1529 2516
1529 2969
1529 3108
1529 3176
1529 3218
1529 3359
1529 3394
1529 3689
1529 3879
1529 3917
1529 3972
1529 4279
1529 4430
1529 4493
1529 4647
1529 4728
1529 4732
1529 4759
1530 2007
1530 2772
1530 2802
1530 3433
1530 3649
1530 4029
1530 4192
1530 4419
1530 4610
1530 4946
1531 1684
1531 1829
1531 1856
1531 2285
1531 2631
1531 3074
1531 3088
1531 3334
1531 3360
1531 3394
1531 3438
1531 3605
1531 3619
1531 3636
1531 3746
1531 3846
1531 4618
1531 4638
1531 4675
1531 4798
1531 4893
1532 1675
1532 1855
1532 2127
1532 2410
1532 3466
1532 3845
1532 4458
1532 4837
1533 2548
1533 2915
1533 3043
1533 3118
1533 3465
1533 3913
1533 4207
1533 4799
1534 1579
1534 1768
1534 1884
1534 1983
1534 2011
1534 2028
1534 2068
1534 2235
1534 2374
1534 2865
1534 3167
1534 3428
1534 3540
1534 3554
1534 3586
1534 4018
1534 4390
1534 4838
1535 2170
1535 2297
1535 2778
1535 2784
1535 2945
1535 2993
1535 3073
1535 3191
1535 3293
1535 3560
1535 4376
1535 4526
1535 4677
1535 4680
1535 4875
1535 4983
1536 1937
1536 2015
1536 2198
1536 2256
1536 2358
1536 2608
1536 2761
1536 2767
1536 2797
1536 3074
1536 3595
1536 3931
1536 4064
1536 4272
1536 4360
1536 4365
1536 4562
1536 4750
1536 4846
1537 1774
1537 2177
1537 2890
1537 2973
1537 2988
1537 3475
1537 4419
1538 1690
1538 2579
1538 3245
1538 3420
1538 3562
1538 3758
1538 4346
1539 2419
1539 2616
1539 3097
1539 3481
1539 3495
1539 3822
1539 3936
1539 4194
1539 4277
1539 4429
1539 4574
1539 4926
1540 1714
1540 1961
1540 2309
1540 2451
1540 2788
1540 3035
1540 3295
1540 3405
1540 3511
1540 3599
1540 4200
1540 4432
1540 4598
1540 4733
1540 4857
1540 4986
1541 2256
1541 2951
1541 3150
1541 3216
1541 3403
1541 3417
1541 3974
1541 4550
1542 1669
1542 2362
1542 3450
1542 3750
1542 3973
1543 1775
1543 2218
1543 2310
1543 2544
1543 2714
1543 2838
1543 3249
1543 3747
1543 4657
1543 4717
1544 2127
1544 2543
1544 3220
1544 3456
1544 3517
1544 4177
1544 4483
1544 4739
1544 4747
1545 1611
1545 2011
1545 2229
1545 2261
1545 2287
1545 2443
1545 2555
1545 2650
1545 2963
1545 3009
1545 3270
1545 3499
1545 3635
1545 3811
1545 4015
1545 4090
1545 4200
1545 4349
1545 4764
1545 4912
1546 1887
1546 2184
1546 2400
1546 2804
1546 2857
1546 3167
1546 3269
1546 3340
1546 3950
1546 4218
1546 4387
1546 4759
1546 4919
1546 4970
1547 1603
1547 1774
1547 1844
1547 2026
1547 2526
1547 2571
1547 2770
1547 3267
1547 3734
1547 3975
1547 4282
1547 4391
1547 4545
1547 4559
1548 1624
1548 1754
1548 1864
1548 1957
1548 2089
1548 2207
1548 2683
1548 2897
1548 3666
1548 3694
1548 3906
1548 3913
1548 4147
1548 4240
1548 4513
1548 4616
1548 4639
1548 4723
1549 1670
1549 1851
1549 2053
1549 2139
1549 2173
1549 2652
1549 3056
1549 3558
1549 3797
1549 4397
1549 4416
1550 1979
1550 2029
1550 2456
1550 2486
1550 2544
1550 2628
1550 3058
1550 3107
1550 3772
1550 3889
1550 4540
1551 1985
1551 1999
1551 2218
1551 2248
1551 2306
1551 2839
1551 3163
1551 3279
1551 3289
1551 3459
1551 3543
1551 4315
1551 4329
1552 1952
1552 1953
1552 3348
1552 3890
1552 4007
1552 4477
1552 4503
1553 2208
1553 2468
1553 3322
1553 3638
1553 3718
1553 4120
1553 4720
1553 4841
1553 4998
1554 1669
1554 1737
1554 1858
1554 1937
1554 2418
1554 2571
1554 3565
1554 4014
1554 4127
1554 4964
1555 1565
1555 2969
1555 3088
1555 3146
1555 3267
1555 3829
1555 3913
1555 3945
1555 4067
1555 4259
1555 4775
1555 4807
1555 4954
1555 4970
1556 1742
1556 1841
1556 2619
1556 2770
1556 3119
1556 3252
1556 3333
1556 4212
1556 4240
1557 1860
1557 1975
1557 2271
1557 2486
1557 3241
1557 3463
1557 4357
1557 4377
1557 4633
1557 4690
1558 2012
1558 2435
1558 2786
1558 3635
1558 3758
1558 3953
1558 4096
1558 4145
1558 4227
1558 4596
1558 4827
1558 4952
1558 4993
1559 1726
1559 2107
1559 2130
1559 2364
1559 2704
1559 2842
1559 3008
1559 3077
1559 3105
1559 3136
1559 3329
1559 3342
1559 3410
1559 3791
1559 4467
1560 1812
1560 2922
1560 3386
1560 3498
1560 3533
1560 4006
1560 4429
1560 4757
1560 4921
1561 1813
1561 1830
1561 2292
1561 2333
1561 2445
1561 2620
1561 2728
1561 4620
1561 4955
1562 1633
1562 2889
1562 2961
1562 4088
1562 4771
1563 2009
1563 2268
1563 3067
1563 3251
1563 3370
1563 4317
1563 4546
1563 4805
1564 1663
1564 1666
1564 1940
1564 2165
1564 2448
1564 2473
1564 2663
1564 2943
1564 3147
1564 3306
1564 3817
1564 3985
1564 4619
1564 4716
1564 4794
1564 4938
1564 4967
1565 2047
1565 2585
1565 2636
1565 2745
1565 2798
1565 3267
1565 3706
1565 3829
1565 4013
1565 4131
1565 4807
1565 4821
1566 2040
1566 2057
1566 2469
1566 3075
1566 3525
1566 3667
1566 3897
1566 4109
1566 4861
1567 1895
1567 2040
1567 2198
1567 2273
1567 3022
1567 3282
1567 3578
1567 3584
1567 3810
1567 3941
1567 4233
1567 4336
1567 4715
1567 4821
1567 4905
1568 1814
1568 1905
1568 2019
1568 2032
1568 2049
1568 2152
1568 2275
1568 2314
1568 2618
1568 2783
1568 2795
1568 3033
1568 3418
1568 3570
1568 3952
1568 4127
1568 4530
1568 4698
1568 4705
1568 4824
1569 2500
1569 2855
1569 3659
1569 3710
1569 3916
1569 4135
1569 4715
1569 4733
1570 1920
1570 2191
1570 2245
1570 2456
1570 2509
1570 2756
1570 2798
1570 2838
1570 3169
1570 3229
1570 3608
1570 3659
1570 3895
1570 4094
1570 4387
1570 4824
1571 1843
1571 1882
1571 1912
1571 2634
1571 3597
1571 3871
1571 4125
1571 4192
1571 4681
1572 1828
1572 1930
1572 2041
1572 2467
1572 2849
1572 2964
1572 4157
1572 4244
1572 4296
1572 4917
1573 1815
1573 2061
1573 2170
1573 2348
1573 2748
1573 2980
1573 3068
1573 3878
1573 3963
1573 4086
1573 4100
1573 4149
1573 4163
1573 4445
1573 4913
1574 3163
1574 4073
1574 4086
1574 4429
1574 4551
1574 4675
1575 2263
1575 2373
1575 2566
1575 2580
1575 2806
1575 2883
1575 3097
1575 3163
1575 3576
1575 3738
1575 4613
1575 4841
1575 4854
1575 4926
1575 4983
1576 1871
1576 2237
1576 3445
1576 4112
1576 4145
1576 4217
1576 4648
1576 4794
1576 4865
1576 4969
1577 1772
1577 1776
1577 2233
1577 2266
1577 2347
1577 3112
1577 3613
1577 4279
1577 4360
1577 4655
1577 4831
1577 4923
1577 4930
1578 3118
1578 4108
1578 4159
1578 4303
1578 4331
1579 1585
1579 1729
1579 2381
1579 2556
1579 2684
1579 3221
1579 3231
1579 3524
1579 3672
1579 3759
1579 3932
1579 4006
1579 4171
1579 4310
1579 4439
1579 4548
1579 4766
1580 1701
1580 2049
1580 2322
1580 2608
1580 2727
1580 2835
1580 3913
1580 4235
1580 4825
1581 1700
1581 2063
1581 2498
1581 2770
1581 2881
1581 2907
1581 2925
1581 2998
1581 3020
1581 3299
1581 3368
1581 3487
1581 3537
1581 3653
1581 4032
1581 4302
1581 4605
1581 4783
1581 4794
1581 4836
1581 4987
1582 2674
1582 2908
1582 2999
1582 3161
1582 4132
1582 4615
1582 4698
1582 4778
1582 4862
1583 1722
1583 2938
1583 3599
1583 4014
1583 4706
1583 4830
1584 3067
1584 3820
1584 4470
1584 4477
1584 4896
1585 1781
1585 2091
1585 2842
1585 3092
1585 3391
1585 3519
1585 3808
1585 4532
1586 1683
1586 1972
1586 3183
1586 3765
1586 3853
1586 3886
1586 4186
1586 4484
1586 4797
1587 1767
1587 1876
1587 2079
1587 2178
1587 3082
1587 3185
1587 3543
1587 3948
1587 4327
1587 4567
1587 4680
1587 4857
1587 4876
1588 1977
1588 2183
1588 2324
1588 2340
1588 3047
1588 3589
1588 4273
1588 4313
1588 4588
1588 4697
1588 4757
1589 1661
1589 1694
1589 1805
1589 1835
1589 2042
1589 2315
1589 2389
1589 2568
1589 2707
1589 2768
1589 3071
1589 3887
1589 3924
1589 3944
1589 4320
1589 4763
1590 1638
1590 1807
1590 1884
1590 1942
1590 2066
1590 2209
1590 2456
1590 2509
1590 2513
1590 2671
1590 2706
1590 2785
1590 2863
1590 2937
1590 3173
1590 3341
1590 3379
1590 3432
1590 3570
1590 3643
1590 3727
1590 3740
1590 3858
1590 3972
1590 4561
1590 4694
1590 4907
1590 4998
1591 1609
1591 2764
1591 3110
1591 3303
1591 3383
1591 3388
1591 3540
1591 3600
1591 4127
1591 4160
1591 4380
1591 4797
1591 4894
1592 1829
1592 2117
1592 3096
1592 3615
1592 3767
1592 4205
1592 4463
1592 4601
1593 2260
1593 2330
1593 2412
1593 3986
1593 4162
1593 4520
1593 4944
1594 2501
1594 2678
1594 3565
1594 3589
1594 4176
1594 4275
1594 4947
1594 4991
1595 2399
1595 2649
1595 2874
1595 3301
1595 3400
1595 3601
1595 3850
1595 4045
1595 4529
1596 1686
1596 2485
1596 2764
1596 2767
1596 3340
1596 4352
1596 4486
1596 4505
1596 4542
1596 4993
1597 2059
1597 2456
1597 2842
1597 3047
1597 3439
1597 4404
1597 4638
1597 4731
1597 4902
1598 1926
1598 2345
1598 2408
1598 2850
1598 3345
1598 3789
1598 3793
1598 4133
1599 2469
1599 3012
1599 3427
1599 3639
1599 3896
1599 4426
1599 4706
1600 1625
1600 1808
1600 2147
1600 2304
1600 2559
1600 2728
1600 2885
1600 2905
1600 3693
1600 4132
1600 4232
1600 4349
1600 4504
1600 4580
1600 4615
1600 4949
1601 1901
1601 2046
1601 2869
1601 3342
1601 4031
1601 4640
1602 1684
1602 2387
1602 2455
1602 2494
1602 2559
1602 3663
1602 3697
1602 4237
1602 4671
1602 4691
1603 2026
1603 2420
1603 2430
1603 2526
1603 3150
1603 3734
1603 3767
1603 4132
1603 4282
1603 4323
1604 1841
1604 1886
1604 1931
1604 2157
1604 2332
1604 2904
1604 3101
1604 3199
1604 3490
1604 3817
1604 3925
1604 4875
1605 1672
1605 1884
1605 2025
1605 2098
1605 2236
1605 2642
1605 2823
1605 3103
1605 3383
1605 3692
1605 4295
1605 4311
1605 4765
1605 4959
1605 4965
1605 4994
1606 1708
1606 2465
1606 2832
1606 2966
1606 2982
1606 3295
1606 3319
1606 3525
1606 3555
1606 3632
1606 4113
1606 4302
1606 4407
1607 1980
1607 2125
1607 2568
1607 2710
1607 2755
1607 3255
1607 3363
1607 3451
1607 3684
1607 3892
1607 4383
1608 2250
1608 2425
1608 2975
1608 3099
1608 3290
1608 3342
1608 3418
1608 3581
1608 3606
1608 4781
1608 4843
1609 1619
1609 1855
1609 2403
1609 2643
1609 3110
1609 3240
1609 3383
1609 3559
1609 4024
1609 4127
1609 4380
1609 4582
1609 4894
1609 4992
1610 1777
1610 2306
1610 2553
1610 2827
1610 3338
1610 3433
1610 3562
1610 3618
1610 3936
1610 4004
1610 4602
1611 2650
1611 2665
1611 3108
1611 3499
1611 3811
1611 4608
1611 4792
1612 2011
1612 2342
1612 2963
1612 3092
1612 3162
1612 3205
1612 3834
1612 4169
1612 4556
1612 4970
1613 1821
1613 1845
1613 2543
1613 2569
1613 2867
1613 2977
1613 3270
1613 3512
1613 3606
1613 3944
1613 4676
1613 4713
1613 4888
1614 2772
1614 3645
1614 3649
1614 4029
1614 4992
1615 1943
1615 2470
1615 2478
1615 2627
1615 2994
1615 3473
1615 4626
1615 4708
1615 4721
1615 4968
1616 2281
1616 3498
1616 3829
1616 4006
1616 4397
1616 4726
1617 1640
1617 2007
1617 2418
1617 2697
1617 2742
1617 2846
1617 2928
1617 3445
1617 3787
1617 4518
1617 4579
1618 1866
1618 2293
1618 3016
1618 3032
1618 3164
1618 3418
1618 4271
1619 1814
1619 2000
1619 2241
1619 2334
1619 2705
1619 2864
1619 3087
1619 3184
1619 3591
1619 3844
1619 3933
1619 3937
1619 4066
1619 4158
1619 4318
1619 4541
1619 4543
1619 4598
1620 2139
1620 2816
1620 3271
1620 3622
1620 3869
1620 4619
1621 1826
1621 1878
1621 2038
1621 2620
1621 2772
1621 2782
1621 2901
1621 2944
1621 3794
1621 4032
1621 4098
1621 4203
1621 4704
1621 4845
1621 4986
1622 1713
1622 2480
1622 2491
1622 2661
1622 2868
1622 3053
1622 3227
1622 3289
1622 4196
1622 4399
1622 4737
1623 2787
1623 2967
1623 2993
1623 3210
1623 3493
1623 3574
1623 3652
1623 3663
1624 2089
1624 2157
1624 2726
1624 2960
1624 3187
1624 3433
1624 3490
1624 3989
1625 1947
1625 2069
1625 2338
1625 2692
1625 2966
1625 3265
1625 3671
1625 4296
1625 4720
1625 4917
1625 4984
1626 2183
1626 2515
1626 3901
1626 4273
1627 1665
1627 1873
1627 1943
1627 3261
1627 3616
1627 4156
1627 4283
1627 4786
1628 1942
1628 2034
1628 2209
1628 2661
1628 2671
1628 2937
1628 3164
1628 3354
1628 3432
1628 3797
1628 3858
1628 4151
1629 2218
1629 2310
1629 2695
1629 2714
1629 3071
1629 3249
1629 4053
1629 4717
1630 1976
1630 2779
1630 3084
1630 3121
1630 3585
1630 4389
1631 2073
1631 2699
1631 3982
1631 4220
1631 4464
1631 4585
1632 1721
1632 1882
1632 1919
1632 2487
1632 2601
1632 3082
1632 3782
1632 4689
1632 4701
1632 4741
1632 4835
1633 1754
1633 2487
1633 2961
1633 3013
1633 3051
1633 3366
1633 3373
1633 4353
1633 4469
1633 4490
1634 1652
1634 1974
1634 2135
1634 2633
1634 2709
1634 3102
1634 3123
1634 3153
1634 3201
1634 3303
1634 3728
1634 3785
1634 4138
1634 4286
1634 4537
1634 4660
1634 4787
1634 4927
1634 4945
1634 4966
1634 4971
1635 1750
1635 1844
1635 2044
1635 3402
1635 3918
1635 3978
1635 3991
1635 4081
1635 4332
1635 4346
1635 4489
1636 2473
1636 3571
1636 3946
1636 4269
1636 4505
1636 4619
1636 4806
1637 2007
1637 2504
1637 2985
1637 3366
1637 3661
1637 4163
1638 1807
1638 1825
1638 1840
1638 1942
1638 3173
1638 3432
1638 3570
1638 3643
1638 3807
1638 3813
1638 4326
1639 2110
1639 2383
1639 2431
1639 3721
1639 3743
1639 3873
1639 4223
1639 4890
1639 4897
1640 2418
1640 2629
1640 3787
1640 4014
1640 4579
1640 4612
1640 4714
1641 1763
1641 2358
1641 2741
1641 3434
1641 3524
1641 3777
1641 4356
1642 1719
1642 2559
1642 2628
1642 4383
1642 4731
1642 4874
1643 2059
1643 3216
1643 3952
1643 4028
1643 4030
1643 4093
1643 4187
1643 4357
1644 1890
1644 2088
1644 2924
1644 3423
1644 3440
1645 1826
1645 1932
1645 2256
1645 2529
1645 3535
1645 3820
1645 3840
1645 4254
1645 4708
1645 4794
1646 1892
1646 1931
1646 2194
1646 2823
1646 3255
1646 3982
1646 4573
1647 2091
1647 2211
1647 2591
1647 2840
1647 3213
1647 3375
1647 3399
1647 3600
1647 3704
1647 3838
1647 3988
1647 4208
1647 4442
1647 4631
1647 4751
1647 4933
1648 1778
1648 2084
1648 2734
1648 3488
1648 3540
1648 3936
1649 1792
1649 2125
1649 2155
1649 2940
1649 4587
1649 4775
1650 2109
1650 2675
1650 3539
1650 3579
1650 3802
1651 2285
1651 2917
1651 2995
1651 3898
1651 4014
1651 4559
1651 4587
1651 4896
1652 2075
1652 2704
1652 2877
1652 3153
1652 3201
1652 3354
1652 4138
1652 4171
1652 4273
1652 4537
1652 4745
1653 1815
1653 1840
1653 2215
1653 2401
1653 2492
1653 2571
1653 3068
1653 3072
1653 4086
1653 4133
1653 4381
1653 4761
1654 1664
1654 1811
1654 2161
1654 3447
1654 3998
1655 1770
1655 2345
1655 2476
1655 2479
1655 2899
1655 3191
1655 3349
1655 3403
1655 3504
1655 3735
1655 4890
1656 2668
1656 2884
1656 3749
1656 3968
1656 4164
1656 4384
1657 2185
1657 2211
1657 3876
1657 4589
1658 1708
1658 1723
1658 1976
1658 2054
1658 2130
1658 2146
1658 2646
1658 3366
1658 3434
1658 3496
1658 3524
1658 3709
1658 4136
1658 4172
1658 4271
1658 4429
1658 4992
1659 1993
1659 2116
1659 2228
1659 2252
1659 2465
1659 2837
1659 3567
1659 3759
1659 4025
1659 4131
1659 4134
1659 4775
1660 1746
1660 2101
1660 2359
1660 2381
1660 2469
1660 2634
1660 2656
1660 2703
1660 2720
1660 2763
1660 3080
1660 3293
1660 3344
1660 3491
1660 3813
1660 4022
1660 4069
1660 4487
1660 4534
1660 4763
1661 1679
1661 1871
1661 2674
1661 3014
1661 3389
1661 4175
1661 4762
1662 2813
1662 2979
1662 3206
1662 3908
1662 4471
1662 4567
1662 4813
1663 2448
1663 2702
1663 4577
1663 4938
1664 2609
1664 4470
1664 4506
1664 4538
1665 2223
1665 2510
1665 2658
1665 2788
1665 2919
1665 2987
1665 3094
1665 3320
1665 3367
1665 3376
1665 4078
1665 4178
1665 4329
1665 4753
1665 4845
1665 4855
1665 4890
1666 2620
1666 2663
1666 2686
1666 3932
1666 4138
1666 4155
1666 4166
1666 4330
1666 4449
1666 4927
1667 2833
1667 2871
1667 2959
1667 3603
1667 3657
1667 3801
1667 3864
1667 4197
1668 1752
1668 1814
1668 1948
1668 2265
1668 2356
1668 3503
1668 3934
1668 4453
1668 4870
1668 4899
1668 4906
1669 1737
1669 1810
1669 2106
1669 2165
1669 2424
1669 2698
1669 2993
1669 3022
1669 4069
1669 4893
1669 4964
1670 1851
1670 2897
1670 3281
1670 4618
1670 4626
1671 1820
1671 2862
1671 2928
1671 3068
1671 3460
1671 3569
1671 3816
1671 4053
1671 4356
1671 4511
1671 4577
1671 4679
1671 4683
1672 1732
1672 1949
1672 2234
1672 2260
1672 3257
1672 3549
1672 3552
1672 3555
1672 3695
1672 3763
1672 4235
1672 4664
1672 4754
1673 1767
1673 1824
1673 2022
1673 2132
1673 2260
1673 2569
1673 3300
1673 3793
1673 3932
1673 4316
1673 4696
1673 4738
1673 4878
1673 4959
1673 4975
1674 2322
1674 2696
1674 4557
1674 4788
1675 1736
1675 1810
1675 2235
1675 2410
1675 3955
1675 4708
1676 1693
1676 1760
1676 1833
1676 2487
1676 2605
1676 2737
1676 3000
1676 3160
1676 3223
1676 3618
1676 3739
1676 4130
1676 4213
1676 4563
1676 4764
1676 4846
1677 1718
1677 2630
1677 2838
1677 3001
1677 3256
1677 3597
1677 4207
1677 4333
1677 4380
1678 1859
1678 1992
1678 1996
1678 2244
1678 2445
1678 3248
1678 3572
1678 3917
1678 3929
1678 3960
1678 4154
1678 4621
1678 4901
1679 1796
1679 1948
1679 2780
1679 2816
1679 3014
1679 3859
1679 3862
1679 4059
1679 4097
1679 4547
1679 4867
1680 2074
1680 2542
1680 2543
1680 2703
1680 3797
1680 3821
1680 4911
1681 1781
1681 1913
1681 2003
1681 2043
1681 2261
1681 2327
1681 2349
1681 2428
1681 2455
1681 2498
1681 2499
1681 2742
1681 2833
1681 3179
1681 3274
1681 4226
1681 4333
1681 4478
1682 2798
1682 3102
1682 3140
1682 3559
1682 4560
1682 4663
1683 1789
1683 1942
1683 2295
1683 2464
1683 2596
1683 3182
1683 3252
1683 3255
1683 3599
1683 3753
1683 3821
1683 3824
1683 3872
1683 3897
1683 4038
1683 4169
1683 4388
1683 4792
1683 4954
1684 1920
1684 2387
1684 2455
1684 2494
1684 2593
1684 2969
1684 3109
1684 3355
1684 3663
1684 4352
1684 4638
1684 4774
1684 4825
1684 4958
1685 1832
1685 2025
1685 2228
1685 2236
1685 2733
1685 3908
1685 3996
1685 4024
1685 4549
1685 4797
1685 4874
1686 2064
1686 2128
1686 2179
1686 2370
1686 2538
1686 2685
1686 2830
1686 3374
1686 3419
1686 3433
1686 3706
1686 3860
1686 3880
1686 4078
1686 4391
1686 4845
1687 1886
1687 2061
1687 2507
1687 3216
1687 3295
1687 3860
1687 4663
1688 1871
1688 2238
1688 2324
1688 3260
1688 3327
1688 3409
1688 3506
1688 3593
1688 3899
1689 1946
1689 2408
1689 3565
1689 4882
1690 2004
1690 2185
1690 2472
1690 2552
1690 3093
1690 3245
1690 3285
1690 3362
1690 3373
1690 3420
1690 3481
1690 3562
1690 3642
1690 3758
1690 4074
1690 4260
1690 4266
1690 4573
1690 4620
1690 4643
1691 1929
1691 2795
1691 2938
1691 3018
1691 3296
1691 3299
1691 3647
1691 3708
1691 3794
1691 3874
1691 4178
1691 4193
1692 1701
1692 1821
1692 2063
1692 2241
1692 4500
1692 4794
1693 1752
1693 3160
1693 3394
1693 3582
1693 3739
1693 3904
1693 4517
1693 4563
1693 4918
1694 1834
1694 1951
1694 2325
1694 3139
1694 3756
1694 4139
1694 4479
1694 4505
1694 4525
1694 4797
1695 1773
1695 2540
1695 2877
1695 2886
1695 3299
1695 3540
1695 3559
1695 3718
1695 4140
1695 4701
1695 4894
1696 1867
1696 2429
1696 2727
1696 3152
1696 3160
1696 3488
1696 4207
1697 1892
1697 2816
1697 2909
1697 3039
1697 3488
1697 3944
1697 4132
1697 4592
1697 4598
1697 4779
1698 2886
1698 3016
1698 3391
1698 3396
1698 3432
1698 3808
1698 4138
1699 1919
1699 3055
1699 3580
1699 4591
1700 1741
1700 2295
1700 2540
1700 2877
1700 3191
1700 3299
1700 3727
1700 4010
1701 1746
1701 2120
1701 2313
1701 2581
1701 2835
1701 2848
1701 3682
1701 3696
1701 4031
1701 4395
1701 4444
1701 4825
1702 1812
1702 2105
1702 3037
1702 3101
1702 3291
1702 3636
1702 3903
1702 4494
1703 1977
1703 2015
1703 2136
1703 2973
1703 3008
1703 3066
1703 3522
1703 3813
1703 4256
1703 4509
1704 1796
1704 3020
1704 3176
1704 3886
1704 4263
1704 4484
1704 4542
1704 4724
1704 4736
1705 1826
1705 1949
1705 1996
1705 2237
1705 2501
1705 2609
1705 2791
1705 2973
1705 3144
1705 3404
1705 3418
1705 3531
1705 3562
1705 3566
1705 3624
1705 3761
1705 3842
1705 3928
1705 3951
1705 4106
1705 4219
1705 4251
1705 4488
1705 4974
1706 2584
1706 2896
1706 2920
1706 3292
1706 4206
1706 4389
1706 4548
1706 4730
1707 2033
1707 3589
1707 3713
1707 4509
1707 4578
1707 4765
1708 2014
1708 2678
1708 2803
1708 2817
1708 3014
1708 3222
1708 3240
1708 3952
1708 4055
1708 4461
1708 4782
1709 1886
1709 2257
1709 2509
1709 2876
1709 2918
1709 3020
1709 3287
1709 3828
1709 3846
1709 3876
1709 4738
1710 2753
1710 2964
1710 3072
1710 3768
1710 4235
1710 4294
1710 4296
1710 4422
1710 4552
1710 4570
1711 1730
1711 1876
1711 2148
1711 2216
1711 2277
1711 2890
1711 3755
1711 3821
1711 4089
1711 4288
1711 4566
1712 2072
1712 2627
1712 2642
1712 2979
1712 3445
1712 3711
1712 3869
1713 1846
1713 1856
1713 2338
1713 3059
1713 3482
1713 3651
1713 3911
1713 4304
1713 4372
1713 4452
1713 4497
1713 4571
1713 4753
1714 2203
1714 2541
1714 2897
1714 3719
1714 4784
1715 2251
1715 2503
1715 3381
1715 3480
1715 3848
1715 4059
1715 4544
1715 4938
1716 1735
1716 2059
1716 2118
1716 2310
1716 2334
1716 2335
1716 2396
1716 2635
1716 2738
1716 2868
1716 2983
1716 3010
1716 3322
1716 3560
1716 3621
1716 3977
1716 4081
1716 4544
1716 4843
1717 2267
1717 2312
1717 2562
1717 2741
1717 3246
1717 3479
1717 3827
1717 4013
1717 4707
1718 1830
1718 2473
1718 2982
1718 3001
1718 3758
1718 3919
1718 4276
1718 4914
1719 1737
1719 1880
1719 2628
1719 2772
1719 3962
1719 4131
1719 4264
1720 1741
1720 2060
1720 2083
1720 2217
1720 2635
1720 2795
1720 2971
1720 3816
1720 4303
1720 4342
1720 4577
1720 4597
1720 4636
1720 4740
1720 4935
1721 1919
1721 1933
1721 2123
1721 2601
1721 4741
1721 4835
1722 2601
1722 2908
1722 3374
1722 3718
1722 4006
1722 4615
1722 4698
1722 4778
1723 2073
1723 2173
1723 2433
1723 2466
1723 2724
1723 2749
1723 2841
1723 2860
1723 2962
1723 2986
1723 3611
1723 3976
1723 4066
1723 4244
1723 4338
1723 4488
1723 4499
1723 4715
1723 4946
1724 2035
1724 2419
1724 2696
1724 3000
1724 3101
1724 3520
1724 3630
1724 3691
1724 3740
1724 3933
1724 4051
1724 4213
1724 4742
1724 4793
1725 1887
1725 2227
1725 2757
1725 3139
1725 4094
1725 4329
1725 4392
1725 4448
1725 4481
1725 4685
1726 1912
1726 1936
1726 2107
1726 3077
1726 3105
1726 3342
1726 3442
1726 3514
1726 4133
1726 4256
1726 4467
1727 1949
1727 2118
1727 2310
1727 2420
1727 3047
1727 3281
1727 3382
1727 3605
1727 3710
1727 3778
1727 4062
1727 4209
1728 1748
1728 1863
1728 1901
1728 2293
1728 3404
1728 3504
1728 4018
1728 4116
1728 4367
1728 4766
1728 4771
1729 2101
1729 2697
1729 2913
1729 3131
1729 3500
1729 4942
1730 2059
1730 2606
1730 3135
1730 3229
1730 3326
1730 3565
1730 3716
1730 3890
1730 4465
1730 4773
1731 2069
1731 2288
1731 2580
1731 3193
1731 4085
1731 4113
1731 4302
1731 4334
1732 1905
1732 2071
1732 2328
1732 2593
1732 2731
1732 2750
1732 3257
1732 3436
1732 3552
1732 3649
1732 3695
1732 4254
1732 4385
1732 4664
1732 4754
1732 4937
1733 4881
1734 1908
1734 2191
1734 3253
1734 3321
1734 3397
1734 3754
1734 4038
1734 4407
1734 4782
1734 4987
1735 1780
1735 2321
1735 2449
1735 2838
1735 3237
1735 3442
1735 3748
1735 4962
1736 2776
1736 3126
1736 3300
1736 3549
1736 3671
1736 3677
1736 3877
1736 3942
1736 4152
1736 4287
1736 4295
1736 4435
1736 4522
1736 4793
1736 4862
1736 4895
1737 2106
1737 3203
1737 4263
1737 4280
1737 4836
1737 4964
1738 1772
1738 3316
1738 3759
1738 3790
1738 4406
1738 4748
1739 2084
1739 2307
1739 2353
1739 2452
1739 2734
1739 2931
1739 2966
1739 2969
1739 4096
1739 4134
1739 4372
1740 2696
1740 2829
1740 3775
1740 3835
1740 4334
1740 4472
1740 4688
1741 2540
1741 2762
1741 2877
1741 3182
1741 3299
1741 3928
1741 4010
1742 1982
1742 2776
1742 3119
1742 3132
1742 3138
1742 3252
1742 4212
1742 4294
1743 1950
1743 2808
1743 3107
1743 3319
1743 3559
1743 3798
1743 3868
1743 4343
1743 4348
1743 4869
1744 1778
1744 1794
1744 1813
1744 2102
1744 2514
1744 2583
1744 2791
1744 2830
1744 2929
1744 3680
1744 3796
1744 3857
1744 4356
1744 4417
1744 4520
1744 4689
1744 4775
1744 4780
1744 4794
1745 1912
1745 2343
1745 2364
1745 2797
1745 2812
1745 2888
1745 2954
1745 2979
1745 3136
1745 3284
1745 3461
1745 3780
1745 4136
1745 4412
1745 4580
1745 4792
1746 1874
1746 2434
1746 2634
1746 2656
1746 2763
1746 3293
1746 3491
1746 3497
1746 3542
1746 3793
1746 4101
1747 2685
1747 3206
1747 4041
1747 4455
1748 2047
1748 2116
1748 2195
1748 2711
1748 2895
1748 4405
1748 4943
1749 2175
1749 3588
1749 3815
1749 3819
1749 4080
1749 4190
1749 4911
1750 1859
1750 2072
1750 2639
1750 3474
1750 3918
1750 3978
1750 4764
1751 2252
1751 3458
1751 3782
1751 3864
1751 3926
1751 3957
1751 3991
1751 4336
1751 4394
1751 4483
1751 4996
1752 1948
1752 3503
1752 3790
1752 4453
1752 4870
1753 1822
1753 1851
1753 2011
1753 2391
1753 4892
1754 1982
1754 2151
1754 3878
1754 3906
1754 4283
1754 4868
1755 2415
1755 2426
1755 2614
1755 2793
1755 2898
1755 2999
1755 3018
1755 3123
1755 3469
1755 3538
1755 3759
1755 3778
1755 3794
1755 3917
1755 3980
1755 4017
1755 4059
1755 4197
1755 4580
1755 4758
1755 4771
1755 4844
1755 4991
1756 2954
1756 3019
1756 3517
1756 4354
1756 4797
1756 4826
1756 4832
1756 4860
1757 1969
1757 2769
1757 2799
1757 2877
1757 2930
1757 3173
1757 4913
1758 2355
1758 2568
1758 2831
1758 2933
1758 3004
1758 3011
1758 3014
1758 3454
1758 4265
1759 1863
1759 2455
1759 2721
1759 3212
1759 3268
1759 3437
1759 3482
1759 4081
1759 4850
1760 3707
1760 3721
1760 3744
1760 4052
1760 4102
1760 4310
1760 4471
1760 4499
1760 4674
1761 1780
1761 1784
1761 2117
1761 2465
1761 3348
1761 3582
1761 4081
1761 4184
1761 4326
1761 4489
1761 4596
1762 1832
1762 1843
1762 1882
1762 2274
1762 2337
1762 2347
1762 3614
1762 3871
1762 4019
1762 4453
1762 4662
1762 4681
1763 1858
1763 2537
1763 2856
1763 3117
1763 3237
1763 3641
1763 4108
1763 4504
1763 4589
1763 4783
1764 2280
1764 2375
1764 2700
1764 2892
1764 3495
1764 3923
1764 3973
1764 4078
1764 4441
1765 1930
1765 2100
1765 2168
1765 2788
1765 2967
1765 3297
1765 3694
1765 3837
1765 4087
1765 4313
1765 4761
1766 2601
1766 3102
1766 3536
1766 4038
1766 4692
1766 4885
1767 1838
1767 1964
1767 2383
1767 3185
1767 3407
1767 3448
1767 3543
1767 3706
1767 4051
1767 4124
1767 4327
1767 4404
1767 4876
1768 2440
1768 2506
1768 3045
1768 3097
1768 3873
1768 4860
1769 1854
1769 2890
1769 3021
1769 3174
1769 3608
1769 4315
1770 2479
1770 3702
1770 4337
1770 4474
1771 2118
1771 2222
1771 2339
1771 2487
1771 2627
1771 2633
1771 3293
1771 4043
1771 4211
1771 4724
1771 4842
1771 4848
1772 1782
1772 3521
1772 4575
1773 2020
1773 3206
1773 3372
1773 3507
1773 3790
1773 3878
1773 3927
1773 4394
1773 4610
1774 1858
1774 1942
1774 2019
1774 2034
1774 2103
1774 2767
1774 2831
1774 2846
1774 2890
1774 2940
1774 2988
1774 3209
1774 3725
1774 3770
1774 3897
1774 4070
1774 4079
1774 4262
1774 4419
1775 2079
1775 2589
1775 2711
1775 2884
1775 3273
1775 3283
1775 3333
1775 3413
1775 3609
1775 4523
1775 4706
1776 2983
1776 3487
1776 3616
1777 1832
1777 2096
1777 2341
1777 2553
1777 3386
1777 3560
1777 3936
1777 4004
1777 4702
1777 4760
1778 2452
1778 2514
1778 2529
1778 2583
1778 3787
1778 4048
1778 4249
1778 4375
1778 4376
1779 1838
1779 1849
1779 2003
1779 2055
1779 2158
1779 2615
1779 3101
1779 4180
1779 4291
1779 4314
1780 1835
1780 2174
1780 2252
1780 2509
1780 2547
1780 2552
1780 2597
1780 2772
1780 2922
1780 2953
1780 3069
1780 3112
1780 3455
1780 3544
1780 4517
1780 4614
1780 4729
1781 1824
1781 1981
1781 2261
1781 2278
1781 2327
1781 2428
1781 2498
1781 2628
1781 2742
1781 3268
1781 4226
1781 4333
1781 4383
1781 4468
1781 4478
1781 4637
1782 2080
1782 2138
1782 2213
1782 2480
1782 2682
1782 2808
1782 2943
1782 3037
1782 3607
1782 3710
1782 3797
1782 4049
1782 4211
1782 4215
1782 4339
1782 4344
1782 4466
1782 4607
1782 4638
1783 1948
1783 2930
1783 3057
1783 3078
1783 3280
1783 3358
1783 3805
1783 3894
1783 4239
1783 4476
1783 4987
1784 2024
1784 2117
1784 2789
1784 2805
1784 2994
1784 3348
1784 3582
1784 4326
1784 4596
1785 1958
1785 2119
1785 2145
1785 2878
1785 2936
1785 3185
1785 3191
1785 3331
1785 3408
1785 4883
1786 1968
1786 2047
1786 2189
1786 2380
1786 2572
1786 2856
1786 3556
1786 3711
1786 4576
1787 2027
1787 2241
1787 2441
1787 2586
1787 3669
1787 4404
1787 4491
1788 2448
1788 2655
1788 2830
1788 2908
1788 3205
1788 3404
1788 3946
1788 4650
1789 1815
1789 2121
1789 3042
1789 4617
1789 4826
1789 4829
1790 2162
1790 2355
1790 3064
1790 3488
1790 3500
1790 4711
1791 1868
1791 1917
1791 2841
1791 2852
1791 3645
1791 3891
1791 4181
1792 2031
1792 2192
1792 2834
1792 3109
1792 3477
1792 3871
1792 4015
1792 4577
1792 4771
1792 4819
1793 1872
1793 2077
1793 2506
1793 2718
1793 2719
1793 2756
1793 2920
1793 3449
1793 3805
1793 3997
1793 3999
1793 4357
1793 4682
1793 4731
1793 4875
1793 4937
1794 2147
1794 2752
1794 2761
1794 2903
1794 3570
1794 3794
1794 3895
1794 4119
1794 4558
1794 4811
1795 2026
1795 2911
1795 2978
1795 4109
1795 4467
1795 4521
1795 4824
1796 2224
1796 2512
1796 3598
1796 3886
1796 4075
1796 4098
1796 4461
1796 4484
1796 4593
1796 4632
1796 4978
1797 2569
1797 3357
1797 3653
1797 4302
1797 4760
1797 4783
1797 4836
1797 4854
1798 1871
1798 3462
1798 3476
1798 4604
1798 4909
1799 2317
1799 2842
1799 2972
1799 3550
1799 3816
1799 3847
1799 4202
1799 4432
1799 4564
1799 4818
1799 4917
1800 1818
1800 1963
1800 2335
1800 2414
1800 2758
1800 2859
1800 3130
1800 3486
1800 3853
1800 4533
1800 4899
1801 1881
1801 2014
1801 2368
1801 2417
1801 3756
1801 4129
1801 4520
1802 2012
1802 2659
1802 4446
1802 4686
1802 4804
1803 1978
1803 2724
1803 2756
1803 3717
1803 3968
1803 4251
1803 4889
1804 2274
1804 2670
1804 2723
1804 3102
1804 3398
1804 3401
1804 3506
1804 3851
1804 3865
1804 3902
1804 4272
1804 4383
1804 4718
1805 1815
1805 3879
1806 2517
1806 2593
1806 3365
1806 3737
1806 3976
1806 4001
1806 4072
1806 4392
1806 4535
1806 4735
1807 1839
1807 2485
1807 2751
1807 2908
1807 2937
1807 3244
1807 3570
1807 3749
1807 4954
1808 1874
1808 2131
1808 2195
1808 2764
1808 2999
1808 3354
1808 3947
1808 4068
1808 4143
1808 4479
1808 4782
1809 2780
1809 3328
1809 3331
1809 3343
1809 3356
1809 3379
1809 3565
1809 3640
1809 3670
1809 3725
1809 3915
1809 3959
1809 3967
1809 4443
1809 4520
1809 4693
1809 4806
1810 1967
1810 2495
1810 2996
1810 3687
1810 4121
1810 4138
1810 4509
1811 1827
1811 2161
1811 2229
1811 2230
1811 2354
1811 2502
1811 2855
1811 3361
1811 3365
1811 3447
1811 3574
1811 3615
1811 3898
1811 3998
1811 4038
1811 4141
1811 4440
1811 4461
1811 4763
1811 4874
1812 1819
1812 1854
1812 1938
1812 2522
1812 2739
1812 3037
1812 3259
1812 3291
1812 3590
1812 3636
1812 4103
1812 4148
1812 4929
1813 2090
1813 2098
1813 2333
1813 2466
1813 2620
1813 3194
1813 3349
1813 3478
1813 3791
1813 3984
1813 4104
1813 4586
1813 4955
1814 1835
1814 2214
1814 2334
1814 2925
1814 3047
1814 3351
1814 3638
1814 3972
1814 4541
1814 4998
1815 1900
1815 1903
1815 2124
1815 2138
1815 2145
1815 2170
1815 2348
1815 2401
1815 2492
1815 2823
1815 2916
1815 2927
1815 2980
1815 3068
1815 3187
1815 3301
1815 3582
1815 3685
1815 3768
1815 3837
1815 3883
1815 4086
1815 4133
1815 4149
1815 4163
1815 4286
1815 4394
1815 4445
1815 4761
1816 2145
1816 2581
1816 2627
1816 3005
1816 3218
1816 3471
1816 4129
1816 4988
1817 1832
1817 1884
1817 3118
1817 3483
1817 3869
1817 4068
1817 4250
1817 4752
1818 2640
1818 2878
1818 3021
1818 3052
1818 3167
1818 3284
1818 3457
1818 3612
1818 3797
1818 3816
1818 3920
1818 4241
1818 4300
1818 4436
1818 4690
1818 4863
1818 4925
1819 2925
1819 3032
1819 3291
1819 3376
1819 3636
1819 4148
1819 4929
1820 1829
1820 2512
1820 3501
1820 4018
1820 4053
1820 4074
1820 4302
1820 4428
1821 2651
1821 3422
1821 3557
1821 4130
1821 4925
1822 1877
1822 2948
1822 4279
1822 4317
1822 4487
1822 4563
1822 4695
1822 4696
1822 4847
1823 1875
1823 1898
1823 2025
1823 2323
1823 2445
1823 2665
1823 2941
1823 3232
1823 3233
1823 3518
1823 3679
1823 3867
1823 4084
1823 4191
1823 4367
1823 4593
1823 4665
1823 4736
1823 4790
1824 1845
1824 2290
1824 2773
1824 3118
1824 3368
1824 3832
1824 3836
1824 3854
1824 4023
1824 4091
1824 4212
1824 4645
1824 4650
1824 4727
1824 4821
1825 2136
1825 2879
1825 3075
1825 3581
1825 3853
1825 3990
1825 4156
1825 4357
1825 4397
1826 2227
1826 2256
1826 2497
1826 2529
1826 2541
1826 3392
1826 3444
1826 3630
1826 3671
1826 3938
1826 4209
1826 4254
1826 4577
1826 4686
1827 2161
1827 2306
1827 2935
1827 2982
1827 3998
1827 4551
1828 2487
1828 2554
1828 2638
1828 2725
1828 2832
1828 2937
1828 3033
1828 3181
1828 3195
1828 3586
1828 3633
1828 3634
1828 3690
1828 4251
1828 4339
1828 4451
1828 4540
1828 4851
1828 4871
1829 1930
1829 2302
1829 2708
1829 2768
1829 2918
1829 3093
1829 3190
1829 3706
1829 3767
1829 4081
1829 4138
1829 4205
1829 4275
1829 4292
1829 4463
1829 4534
1829 4549
1829 4883
1830 2290
1830 2292
1830 2445
1830 2620
1830 2712
1830 2873
1830 3267
1830 3760
1830 3791
1830 4451
1830 4955
1831 2384
1831 2446
1831 2505
1831 2921
1831 2948
1831 3134
1831 4246
1831 4765
1832 1833
1832 2025
1832 2048
1832 2228
1832 2411
1832 2575
1832 2590
1832 3059
1832 3267
1832 3290
1832 3412
1832 3908
1832 3996
1832 4024
1832 4231
1832 4462
1832 4797
1832 4874
1832 4943
1833 2113
1833 2557
1833 2977
1833 3004
1833 3211
1833 3277
1833 3732
1833 3812
1833 3814
1833 3836
1833 3854
1833 3971
1833 4032
1833 4049
1833 4408
1833 4590
1833 4651
1833 4888
1833 4911
1834 1885
1834 2305
1834 2325
1834 2612
1834 3042
1834 3188
1834 3402
1834 3416
1834 3525
1834 4025
1834 4139
1834 4244
1834 4253
1834 4575
1834 4858
1835 2174
1835 2335
1835 2798
1835 2953
1835 3112
1835 3246
1835 3534
1835 3544
1835 4145
1835 4555
1835 4614
1835 4925
1835 4968
1836 2185
1836 2208
1836 2211
1836 2371
1836 2558
1836 2626
1836 2805
1836 3173
1836 3323
1836 4685
1837 1885
1837 1959
1837 2820
1837 3077
1837 3318
1837 3585
1837 3772
1837 4416
1837 4541
1837 4787
1837 4989
1838 2871
1838 3678
1838 4048
1838 4169
1838 4243
1838 4296
1838 4958
1839 2115
1839 2151
1839 2212
1839 2396
1839 2632
1839 2793
1839 2857
1839 3267
1839 3298
1839 3468
1839 3546
1839 3747
1839 3842
1839 3997
1839 4012
1839 4188
1839 4484
1839 4576
1839 4690
1839 4876
1839 4940
1840 2504
1840 3285
1840 3807
1840 4189
1840 4864
1841 1931
1841 2332
1841 2374
1841 2533
1841 3176
1841 3186
1841 3203
1841 3275
1841 3302
1841 3525
1841 3574
1841 3661
1841 3687
1841 3700
1841 3817
1841 3849
1841 4434
1841 4506
1841 4845
1841 4898
1841 4996
1842 1863
1842 2555
1842 3389
1842 3852
1842 3859
1842 3965
1842 4359
1842 4879
1842 4977
1843 1882
1843 2053
1843 3034
1843 3081
1843 3249
1843 3614
1843 3871
1843 4274
1843 4706
1844 1870
1844 1966
1844 2235
1844 2713
1844 2787
1844 2954
1844 3049
1844 3246
1844 3396
1844 3421
1844 3425
1844 3428
1844 4228
1844 4433
1845 2175
1845 2305
1845 2421
1845 2972
1845 3847
1845 3984
1845 3990
1845 4201
1845 4202
1845 4417
1845 4818
1845 4917
1845 4921
1846 2270
1846 2889
1846 3464
1846 4466
1846 4857
1847 2582
1847 2802
1847 2814
1847 2826
1847 2902
1847 3191
1847 3966
1847 3975
1847 4283
1847 4429
1847 4551
1847 4565
1847 4683
1847 4721
1848 1957
1848 2093
1848 2400
1848 3391
1848 3508
1848 4359
1849 2205
1849 2978
1849 3299
1849 4110
1850 1874
1850 2940
1850 4122
1850 4424
1851 3230
1851 4263
1851 4462
1851 4653
1852 2091
1852 2189
1852 2551
1852 2592
1852 3072
1852 4422
1853 2314
1853 2611
1853 2845
1853 2965
1853 3704
1853 3752
1853 3884
1853 4024
1853 4318
1853 4507
1853 4794
1853 4921
1854 2427
1854 2553
1854 2583
1854 2644
1854 2667
1854 3471
1854 3680
1854 4164
1854 4219
1854 4833
1855 2541
1855 2549
1855 2947
1855 3834
1855 4278
1855 4322
1855 4573
1855 4619
1856 2150
1856 2242
1856 2518
1856 2571
1856 2880
1856 3797
1856 3872
1856 4193
1856 4622
1856 4832
1857 2147
1857 2432
1857 2739
1857 2863
1857 3572
1857 3618
1857 3882
1857 3973
1857 4074
1857 4258
1857 4418
1858 1859
1858 2024
1858 2262
1858 2723
1858 2759
1858 2900
1858 2952
1858 2962
1858 3012
1858 3201
1858 3418
1858 3648
1858 3683
1858 3724
1858 3830
1858 4208
1858 4559
1858 4728
1858 4762
1858 4959
1859 1862
1859 1885
1859 1949
1859 1965
1859 1994
1859 2270
1859 2672
1859 2972
1859 2995
1859 3927
1859 4170
1859 4204
1859 4440
1859 4593
1859 4765
1859 4885
1860 2355
1860 2454
1860 2921
1860 2987
1860 3314
1860 3394
1860 3530
1860 4298
1860 4357
1860 4456
1860 4528
1861 1866
1861 2404
1861 4011
1861 4088
1861 4656
1861 4909
1862 2534
1862 3128
1862 4096
1862 4180
1862 4229
1862 4871
1862 4982
1863 2175
1863 2555
1863 2843
1863 2970
1863 3852
1863 3859
1863 4013
1863 4359
1863 4787
1863 4977
1864 2247
1864 2418
1864 2728
1864 2973
1864 3246
1864 3607
1864 3899
1864 4074
1864 4173
1864 4406
1865 2183
1865 2298
1865 2655
1865 2937
1865 3059
1865 3173
1865 3643
1866 3603
1866 4011
1866 4656
1867 2192
1867 2533
1867 2915
1867 3822
1867 4411
1867 4435
1867 4811
1868 2088
1868 3252
1868 3495
1868 3684
1868 3933
1869 2084
1869 2542
1869 2728
1869 3350
1869 3617
1869 3774
1869 4204
1869 4785
1870 2635
1870 3099
1870 3178
1870 3301
1870 3356
1870 3393
1870 3689
1870 3928
1870 4094
1871 1902
1871 2072
1871 2172
1871 2275
1871 2790
1871 2891
1871 3445
1871 3773
1871 4112
1871 4217
1871 4276
1871 4615
1871 4648
1871 4746
1871 4781
1871 4969
1872 2325
1872 2694
1872 2851
1872 2888
1872 3556
1872 4596
1872 4695
1873 1943
1873 2898
1873 3616
1873 3887
1873 3996
1873 4150
1873 4283
1873 4573
1873 4751
1873 4961
1874 1987
1874 2754
1874 3087
1874 3486
1874 4068
1874 4479
1874 4591
1875 2072
1875 2147
1875 2323
1875 2775
1875 2870
1875 3414
1875 3679
1875 4592
1875 4756
1876 2045
1876 2816
1876 3364
1876 3800
1876 3882
1876 4221
1876 4409
1876 4624
1877 2267
1877 2296
1877 3039
1877 3718
1877 4074
1877 4487
1877 4695
1877 4729
1877 4847
1877 4994
1878 3281
1878 3728
1878 3786
1878 3885
1878 3941
1879 2873
1879 3467
1879 3635
1879 3910
1879 4042
1879 4596
1879 4817
1880 2925
1880 2929
1880 4070
1880 4186
1880 4393
1880 4660
1880 4795
1881 2417
1881 2535
1881 3426
1881 3756
1881 3986
1881 4620
1881 4705
1882 2064
1882 2325
1882 2528
1882 2529
1882 2745
1882 3276
1882 3331
1882 3387
1882 3614
1882 3871
1882 4100
1882 4315
1882 4681
1883 2053
1883 2688
1883 2704
1883 3177
1883 3564
1883 3585
1883 3780
1883 4210
1883 4971
1884 2149
1884 2870
1884 4697
1884 4716
1884 4980
1885 3641
1885 3874
1885 3947
1885 4170
1885 4204
1885 4288
1885 4440
1885 4593
1885 4865
1886 2205
1886 2257
1886 2531
1886 2755
1886 2876
1886 2918
1886 2972
1886 3287
1886 3645
1886 3830
1886 3833
1886 3846
1886 4015
1886 4098
1886 4811
1886 4822
1887 2694
1887 4138
1887 4329
1887 4812
1888 3597
1888 4244
1888 4401
1888 4518
1888 4530
1888 4765
1889 1902
1889 2033
1889 2416
1889 2418
1889 2467
1889 2496
1889 2955
1889 4270
1889 4297
1889 4625
1889 4719
1890 2239
1890 2407
1890 2440
1890 2844
1890 2856
1890 3349
1890 4396
1890 4613
1890 4662
1890 4770
1891 1949
1891 2070
1891 2563
1891 3095
1891 3312
1891 3343
1891 3930
1891 4418
1891 4852
1892 2326
1892 2909
1892 3141
1892 3263
1892 3500
1892 3747
1892 4023
1892 4090
1892 4592
1893 2162
1893 2386
1893 2628
1893 2746
1893 2772
1893 2968
1893 3435
1893 4252
1893 4536
1893 4855
1893 4904
1894 2129
1894 3160
1894 3894
1894 4112
1894 4476
1895 1958
1895 2071
1895 2257
1895 2993
1895 3176
1895 3523
1895 3636
1895 3649
1895 3675
1895 4290
1895 4436
1895 4446
1895 4910
1896 1972
1896 2052
1896 2619
1896 2851
1896 3020
1896 3370
1896 3371
1896 4150
1897 2027
1897 2086
1897 2416
1897 3304
1897 3712
1897 4049
1897 4064
1897 4764
1897 4908
1897 4928
1897 4991
1898 2113
1898 2127
1898 2734
1898 2934
1898 2977
1898 3211
1898 3732
1898 3836
1898 4211
1898 4607
1898 4888
1899 2075
1899 2295
1899 2479
1899 2867
1899 2933
1899 3011
1899 3454
1899 4113
1899 4265
1900 2269
1900 2331
1900 2347
1900 2647
1900 3258
1900 3673
1900 3957
1900 4242
1900 4310
1901 2032
1901 2293
1901 2866
1901 2988
1901 3116
1901 3339
1901 3404
1901 3722
1901 4116
1901 4367
1901 4482
1901 4766
1901 4932
1901 4983
1902 1916
1902 1925
1902 2092
1902 2385
1902 2964
1902 3219
1902 3278
1902 3347
1902 3397
1902 3546
1902 3711
1902 4128
1902 4240
1902 4375
1902 4643
1902 4773
1903 2282
1903 2390
1903 2627
1903 2664
1903 2787
1903 3239
1903 3645
1903 3729
1903 3730
1904 2005
1904 2126
1904 2186
1904 2273
1904 2368
1904 3504
1904 3913
1904 4192
1904 4240
1904 4744
1904 4800
1904 4914
1904 4997
1905 1994
1905 2115
1905 2171
1905 2403
1905 2594
1905 2756
1905 2911
1905 3674
1905 4118
1905 4224
1905 4881
1906 2326
1906 2379
1906 2586
1906 3138
1906 3565
1906 4066
1906 4257
1906 4724
1906 4911
1906 4992
1907 2027
1907 2082
1907 2571
1907 2776
1907 2827
1907 2900
1907 2973
1907 3083
1907 3179
1907 3296
1907 3581
1907 3627
1907 3834
1907 3862
1907 4015
1907 4111
1907 4227
1907 4602
1908 2175
1908 3321
1908 3607
1908 4894
1908 4987
1909 1967
1909 2152
1909 2584
1909 2588
1909 2692
1909 3203
1909 3349
1909 3380
1909 3789
1909 4072
1909 4657
1909 4858
1910 1937
1910 3159
1910 3208
1910 3313
1910 3504
1910 3984
1910 4739
1910 4789
1910 4902
1911 2003
1911 2221
1911 2278
1911 2499
1911 2541
1911 2637
1911 3061
1911 3274
1911 3325
1911 3686
1911 3731
1911 4333
1911 4337
1911 4800
1912 2081
1912 3016
1912 3164
1912 4411
1912 4766
1912 4843
1913 1926
1913 2027
1913 2825
1913 4404
1913 4595
1913 4813
1913 4908
1914 2151
1914 3111
1914 3310
1914 3858
1914 4329
1914 4345
1914 4362
1914 4712
1914 4953
1915 2539
1915 3783
1915 3860
1915 4049
1915 4913
1915 4983
1916 1925
1916 3397
1916 4447
1916 4643
1917 2871
1917 3752
1917 3964
1917 4046
1917 4162
1917 4504
1917 4679
1918 1922
1918 2079
1918 2407
1918 2555
1918 2853
1918 2883
1918 3263
1918 3789
1918 3804
1918 3992
1918 4038
1918 4263
1918 4351
1919 2041
1919 2601
1919 4089
1919 4535
1919 4741
1919 4835
1920 2105
1920 2195
1920 2206
1920 2598
1920 2838
1920 3169
1920 3223
1920 3608
1920 3736
1920 3795
1920 4072
1920 4333
1921 2099
1921 2298
1921 2369
1921 3248
1921 3623
1921 3834
1921 4358
1922 2079
1922 2087
1922 2407
1922 2757
1922 2884
1922 3402
1922 3992
1922 4247
1922 4263
1922 4351
1922 4814
1923 2336
1923 2345
1923 2408
1923 2698
1923 3345
1923 3539
1923 3554
1924 2149
1924 2302
1924 2343
1924 2387
1924 3304
1924 3771
1924 4489
1925 2189
1925 2616
1925 3022
1925 3455
1925 4079
1925 4220
1925 4643
1926 2027
1926 2146
1926 2195
1926 2196
1926 2675
1926 2778
1926 2780
1926 4125
1926 4404
1926 4521
1926 4802
1927 2311
1927 2808
1927 2886
1927 3171
1927 3485
1927 3536
1927 3576
1927 4496
1927 4587
1927 4958
1927 4987
1928 2066
1928 2236
1928 2450
1928 2483
1928 2538
1928 2747
1928 2971
1929 2009
1929 2938
1929 2948
1929 3018
1929 3296
1929 3612
1929 3708
1929 3732
1929 3874
1929 4869
1929 4902
1930 2467
1930 2849
1930 2933
1930 2964
1930 3430
1930 4157
1931 2005
1931 2332
1931 3095
1931 3142
1931 3302
1931 3700
1931 3817
1932 1959
1932 2313
1932 3153
1932 3188
1932 3208
1932 3494
1932 3715
1932 4502
1932 4637
1933 2024
1933 2130
1933 2471
1933 2601
1933 2895
1933 3227
1933 3782
1933 4385
1933 4667
1933 4741
1933 4835
1934 3792
1934 4235
1934 4460
1934 4646
1934 4650
1934 4703
1934 4760
1935 2607
1935 2623
1935 2763
1935 2779
1935 2819
1935 2972
1935 2975
1935 2998
1935 3169
1935 3240
1935 3438
1935 3807
1935 3833
1935 4002
1935 4103
1935 4141
1935 4317
1935 4333
1935 4856
1935 4923
1936 2406
1936 2591
1936 2706
1936 2729
1936 2891
1936 3021
1936 3086
1936 3305
1936 3355
1936 3441
1936 3602
1936 3667
1936 3783
1936 4168
1936 4173
1936 4193
1936 4225
1936 4808
1936 4936
1937 2095
1937 2391
1937 2608
1937 2767
1937 3283
1937 3711
1937 4078
1938 2161
1938 2639
1938 2705
1938 2817
1938 2844
1938 2894
1938 2924
1938 2987
1938 3155
1938 3347
1938 3462
1938 3537
1938 3666
1938 3696
1938 4009
1938 4010
1938 4057
1938 4082
1938 4324
1938 4811
1939 2471
1939 2940
1939 3479
1939 3792
1939 4474
1940 2719
1940 4030
1940 4967
1941 2217
1941 2322
1941 2445
1941 2781
1941 2795
1941 2992
1941 3784
1941 3816
1941 4073
1941 4342
1941 4597
1941 4935
1942 1984
1942 2492
1942 2751
1942 2937
1942 3084
1942 3173
1942 3505
1942 3749
1942 3858
1942 3968
1942 4417
1942 4442
1942 4561
1942 4613
1942 4694
1942 4907
1943 2469
1943 2874
1943 3024
1943 3050
1943 3173
1943 3447
1943 3616
1943 4152
1943 4156
1943 4247
1943 4283
1943 4296
1943 4476
1943 4483
1943 4528
1943 4724
1943 4751
1943 4961
1944 2405
1944 2449
1944 3047
1944 3294
1944 3553
1944 4509
1945 3237
1945 3442
1945 4343
1945 4773
1946 2224
1946 2256
1946 2283
1946 2397
1946 2413
1946 2454
1946 2481
1946 2519
1946 2525
1946 2576
1946 3044
1946 3323
1946 3390
1946 3392
1946 3572
1946 3947
1946 4071
1946 4208
1947 2152
1947 2314
1947 2783
1947 3362
1947 3456
1947 3802
1947 4249
1947 4587
1947 4966
1948 2047
1948 2112
1948 2511
1948 2684
1948 2710
1948 2748
1948 3022
1948 3150
1948 3503
1948 3718
1948 3934
1948 4453
1948 4670
1948 4870
1949 2215
1949 3138
1949 3174
1949 3382
1949 3605
1949 3839
1949 3989
1949 4225
1949 4580
1949 4893
1950 2192
1950 2271
1950 2469
1950 3319
1950 4274
1951 2306
1951 2458
1951 2670
1951 3041
1951 3051
1951 3277
1951 3687
1951 3912
1951 4300
1951 4834
1951 4957
1952 2426
1952 2565
1952 2771
1952 2896
1952 3548
1952 3610
1953 2098
1953 2145
1953 3184
1953 3587
1953 3884
1953 4007
1953 4938
1954 2414
1954 2474
1954 2951
1954 3016
1954 3283
1954 3386
1954 3776
1954 3832
1954 4005
1954 4364
1954 4555
1955 2049
1955 2096
1955 2213
1955 2240
1955 2582
1955 3178
1955 3566
1955 4785
1956 2063
1956 2079
1956 2170
1956 2294
1956 2672
1956 2841
1956 3657
1956 3891
1956 3898
1956 4743
1956 4788
1957 2093
1957 2400
1957 2911
1957 3439
1957 3543
1957 4188
1958 2048
1958 2423
1958 2841
1958 2936
1958 3331
1958 3632
1958 3930
1958 4561
1958 4846
1959 2142
1959 2197
1959 2219
1959 2599
1959 3150
1959 3375
1959 3689
1959 3716
1959 4095
1959 4272
1959 4378
1959 4586
1959 4902
1960 2097
1960 2118
1960 2792
1960 3695
1960 3898
1960 4431
1960 4459
1960 4846
1961 2822
1961 2996
1961 3500
1961 3687
1961 4082
1961 4148
1962 2274
1962 2392
1962 2739
1962 3474
1962 3555
1962 3905
1962 4026
1962 4164
1963 3003
1963 3206
1963 4020
1963 4041
1963 4286
1964 2830
1964 2897
1964 3264
1964 3346
1964 3353
1964 4030
1964 4111
1964 4149
1964 4863
1964 4880
1965 2995
1965 3036
1965 3198
1965 4170
1965 4204
1965 4339
1965 4440
1965 4593
1965 4950
1966 2253
1966 2740
1966 2970
1966 3246
1966 3421
1966 3425
1966 3830
1966 4913
1967 2259
1967 2384
1967 2561
1967 2588
1967 3006
1967 3203
1967 3380
1967 3443
1967 3934
1967 3973
1967 4403
1967 4657
1968 2230
1968 2316
1968 2380
1968 2694
1968 3556
1968 4472
1968 4566
1969 2373
1969 2987
1969 3294
1969 3316
1969 3521
1969 3759
1970 2360
1970 2405
1970 2783
1970 2880
1970 3230
1970 3675
1970 3926
1970 4057
1970 4433
1970 4661
1970 4723
1971 1987
1971 2057
1971 2228
1971 2388
1971 2675
1971 2723
1971 2777
1971 2881
1971 3326
1971 3455
1971 3598
1971 3659
1971 3723
1971 3749
1971 3882
1971 4400
1971 4720
1971 4838
1972 2129
1972 2619
1972 3020
1972 3371
1972 3499
1972 3621
1972 4273
1972 4410
1972 4594
1972 4753
1973 2207
1973 2216
1973 3371
1973 3755
1973 3821
1973 4089
1974 2237
1974 2313
1974 2463
1974 2623
1974 2696
1974 2949
1974 3009
1974 3092
1974 3307
1974 3436
1974 3671
1974 4244
1974 4347
1974 4729
1974 4782
1974 4867
1975 2307
1975 3241
1975 3631
1975 4357
1976 2177
1976 2275
1976 2716
1976 2744
1976 3069
1976 3084
1976 3385
1976 3746
1976 3751
1976 4337
1977 2015
1977 2485
1977 2592
1977 2816
1977 3023
1977 3066
1977 3118
1977 3352
1977 3522
1977 3790
1977 3822
1977 3957
1977 4434
1977 4741
1977 4823
1978 2162
1978 2177
1978 2724
1978 2756
1978 3330
1978 4889
1979 2026
1979 2029
1979 3636
1979 3685
1979 3889
1980 2091
1980 2187
1980 2241
1980 3204
1980 3777
1980 3797
1980 4852
1981 2007
1981 2130
1981 2422
1981 2423
1981 2745
1981 2768
1981 2890
1981 3063
1981 4858
1981 4929
1981 4958
1982 2193
1982 2903
1982 3631
1982 3864
1982 4490
1982 4640
1982 4703
1982 4873
1983 2901
1983 3077
1983 3233
1983 3463
1983 3647
1983 3976
1983 4158
1983 4494
1983 4967
1984 3145
1984 3549
1984 4051
1984 4229
1985 2029
1985 2071
1985 2511
1985 3598
1985 3948
1985 3994
1985 4007
1985 4015
1985 4738
1986 2061
1986 2363
1986 3760
1986 4101
1986 4913
1987 2056
1987 2116
1987 3376
1987 3784
1987 3811
1987 4479
1987 4532
1987 4942
1988 2145
1988 2877
1988 3166
1988 3456
1988 3572
1988 3860
1988 4005
1988 4837
1989 1999
1989 2052
1989 2177
1989 2574
1989 2645
1989 2657
1989 2946
1989 3000
1989 3145
1989 3372
1989 3692
1989 3696
1989 3890
1989 4466
1989 4769
1990 2959
1990 2963
1990 3492
1990 3580
1990 4208
1990 4675
1991 2246
1991 2854
1991 3142
1991 3590
1991 3645
1991 4293
1991 4612
1991 4823
1992 2111
1992 2266
1992 3079
1992 3698
1992 4560
1992 4812
1993 2276
1993 3567
1993 3808
1993 4025
1993 4068
1993 4134
1993 4255
1993 4775
1993 4832
1994 2594
1994 3403
1994 3563
1994 3581
1994 3691
1994 3956
1994 4030
1994 4192
1994 4224
1995 2876
1995 2971
1995 3081
1995 4146
1995 4881
1996 2791
1996 2905
1996 3531
1996 3566
1996 3951
1996 4488
1997 2123
1997 2589
1997 2928
1997 2935
1997 3457
1997 3654
1997 4054
1997 4071
1997 4451
1997 4931
1998 2180
1998 3245
1998 3366
1998 3661
1998 4309
1998 4994
1999 2574
1999 2946
1999 2981
1999 3007
1999 4466
1999 4551
1999 4793
2000 2034
2000 2618
2000 2765
2000 3125
2000 3133
2000 3324
2000 4274
2000 4521
2000 4828
2001 2105
2001 2318
2001 2595
2001 2693
2001 2753
2001 3689
2001 3818
2001 4091
2001 4098
2002 2006
2002 2531
2002 2734
2002 3068
2002 3215
2002 3519
2002 4557
2003 2327
2003 2428
2003 2498
2003 2533
2003 3274
2004 2036
2004 2573
2004 3063
2004 3176
2004 4241
2004 4479
2004 4811
2004 4878
2005 2220
2005 2272
2005 2320
2005 2550
2005 2609
2005 2706
2005 2723
2005 2774
2005 3072
2005 3478
2005 3920
2005 4232
2005 4702
2005 4910
2006 2270
2006 2350
2006 2422
2006 2490
2006 2550
2006 2593
2006 2752
2006 2794
2006 2810
2006 3064
2006 3492
2006 3540
2006 3605
2006 3628
2006 4105
2006 4191
2006 4425
2006 4511
2006 4660
2006 4689
2006 4718
2007 2106
2007 2239
2007 2422
2007 2892
2007 2899
2007 3062
2007 3063
2007 3100
2007 3340
2007 3375
2007 3428
2007 3470
2007 3700
2007 3781
2007 4397
2007 4434
2007 4732
2007 4760
2007 4854
2007 4858
2008 2261
2008 2289
2008 3279
2008 3870
2008 4273
2008 4287
2008 4417
2008 4699
2008 4917
2009 2169
2009 2239
2009 2268
2009 3370
2009 4103
2009 4317
2009 4753
2009 4771
2009 4805
2010 2222
2010 2514
2010 2677
2010 2700
2010 3766
2010 4239
2011 2087
2011 2347
2011 2456
2011 2475
2011 2477
2011 2651
2011 2741
2011 2875
2011 2963
2011 3030
2011 3152
2011 3162
2011 3245
2011 3380
2011 3515
2011 3758
2011 3920
2011 4011
2011 4556
2011 4611
2011 4775
2011 4970
2012 2037
2012 2054
2012 2132
2012 2768
2012 2933
2012 3062
2012 3210
2012 3408
2012 3505
2012 3623
2012 3775
2012 4288
2012 4291
2012 4520
2012 4686
2012 4744
2012 4804
2013 2752
2013 2761
2013 2769
2013 2781
2013 3578
2013 3794
2013 4119
2013 4558
2013 4811
2013 4985
2014 2794
2014 2952
2014 3656
2014 3952
2014 4055
2014 4251
2014 4461
2014 4902
2015 2623
2015 2798
2015 3540
2016 2129
2016 2711
2016 2848
2016 3078
2016 3220
2016 3247
2016 3607
2016 3673
2016 4533
2017 2501
2017 2897
2017 3118
2017 3370
2017 3589
2017 3698
2017 4176
2017 4503
2017 4604
2018 2172
2018 2386
2018 2495
2018 3267
2018 3303
2018 4046
2018 4162
2018 4420
2019 2217
2019 2331
2019 2453
2019 2641
2019 3132
2019 4165
2019 4212
2019 4308
2019 4586
2020 3372
2020 3507
2020 3790
2020 3878
2020 4600
2020 4738
2020 4770
2021 2085
2021 2485
2021 2522
2021 2903
2021 3209
2021 3309
2021 3395
2021 3576
2021 3957
2021 4036
2021 4037
2021 4130
2021 4214
2021 4251
2021 4273
2021 4299
2021 4467
2021 4691
2022 2071
2022 2282
2022 2886
2022 2957
2022 3831
2022 4035
2022 4463
2022 4490
2022 4536
2023 2184
2023 2288
2023 2290
2023 2397
2023 2562
2023 3120
2023 3384
2023 3416
2023 3418
2023 4334
2023 4798
2023 4903
2023 4979
2024 2420
2024 2759
2024 2947
2024 2962
2024 3012
2024 3304
2024 3554
2024 3648
2024 4380
2024 4728
2025 2228
2025 2482
2025 3241
2025 3499
2025 3681
2025 3853
2025 3908
2025 3993
2025 3996
2025 4024
2025 4050
2025 4097
2025 4392
2025 4424
2025 4542
2025 4797
2025 4842
2025 4874
2026 2420
2026 2770
2026 3559
2026 3734
2026 3954
2027 2254
2027 2893
2027 3501
2027 3748
2027 3771
2027 3836
2027 3924
2027 4234
2027 4265
2027 4276
2027 4404
2027 4443
2027 4508
2027 4730
2027 4760
2027 4802
2028 2149
2028 2159
2028 2347
2028 2578
2028 2652
2028 3397
2028 4749
2028 4869
2029 2050
2029 2618
2029 3008
2029 3889
2029 4095
2029 4540
2030 2840
2030 3507
2030 3790
2030 3878
2030 3956
2030 4394
2031 2472
2031 2946
2031 3109
2031 3477
2031 4068
2031 4577
2031 4771
2032 2054
2032 2104
2032 2152
2032 2314
2032 2319
2032 2442
2032 3166
2032 4249
2032 4253
2032 4649
2033 2049
2033 2137
2033 2377
2033 2534
2033 2720
2033 2813
2033 2910
2033 3008
2033 3372
2033 3395
2033 3521
2033 3574
2033 4087
2033 4115
2033 4776
2033 4897
2034 2765
2034 2925
2034 3133
2034 3823
2034 3846
2034 4120
2034 4274
2034 4335
2034 4363
2034 4472
2034 4774
2034 4828
2035 2518
2035 2602
2035 2733
2035 3322
2035 3424
2035 3624
2035 3694
2035 3733
2035 4179
2035 4737
2035 4749
2035 4902
2036 2573
2036 2607
2036 3623
2036 3737
2036 4878
2037 2241
2037 2428
2037 2740
2037 2742
2037 2791
2037 2872
2037 3274
2037 3473
2037 3881
2037 4031
2037 4102
2037 4289
2037 4333
2037 4337
2037 4404
2038 2509
2038 3814
2038 4032
2038 4098
2038 4203
2038 4845
2039 2129
2039 2711
2039 2744
2039 2902
2039 3078
2039 3143
2039 3547
2039 4251
2039 4487
2039 4693
2039 4773
2040 3022
2040 3810
2040 3941
2040 4180
2040 4233
2040 4905
2041 2072
2041 2149
2041 2492
2041 2562
2041 3051
2041 3468
2041 3484
2041 3602
2041 3657
2041 3780
2041 3863
2041 4238
2041 4250
2041 4374
2041 4515
2041 4809
2042 2189
2042 2311
2042 3228
2042 3700
2042 4470
2042 4662
2043 2125
2043 2303
2043 2508
2043 2519
2043 2604
2043 3524
2043 4623
2043 4632
2044 2239
2044 2398
2044 2643
2044 2922
2044 2970
2044 3731
2044 4258
2044 4976
2045 2490
2045 2512
2045 2856
2045 3718
2045 3734
2045 3800
2045 3882
2045 4221
2045 4409
2045 4624
2045 4689
2046 2683
2046 3876
2046 4814
2047 2164
2047 2488
2047 3577
2047 3584
2047 3651
2047 3814
2047 3943
2047 4104
2047 4330
2047 4408
2047 4840
2047 4978
2048 2186
2048 2780
2048 2930
2048 4700
2048 4710
2049 2137
2049 2225
2049 2289
2049 2377
2049 2510
2049 2670
2049 2720
2049 2722
2049 2970
2049 3008
2049 3213
2049 3574
2049 4115
2049 4428
2049 4669
2049 4932
2050 2268
2050 2510
2050 2947
2050 3678
2050 3900
2050 4443
2051 2233
2051 2275
2051 2546
2051 2845
2051 3388
2051 3737
2051 3965
2051 3969
2051 4130
2051 4267
2051 4313
2051 4415
2051 4436
2051 4491
2051 4641
2051 4796
2051 4825
2051 4923
2052 2679
2052 3161
2052 3198
2052 3370
2052 3669
2052 3801
2052 3826
2052 3857
2052 3864
2052 4120
2052 4815
2052 4936
2052 4995
2053 2856
2053 3558
2054 2146
2054 2172
2054 2175
2054 2369
2054 2933
2054 3015
2054 3051
2054 3111
2054 3496
2054 3806
2054 4172
2054 4188
2054 4838
2055 2615
2055 3101
2055 4220
2055 4314
2055 4736
2055 4767
2055 4993
2056 2164
2056 2676
2056 3264
2056 3779
2057 2386
2057 2430
2057 2434
2057 2469
2057 3075
2057 3667
2057 3851
2057 4883
2058 2319
2058 2914
2058 3116
2058 3117
2058 3273
2058 3354
2058 3429
2058 3494
2058 4189
2058 4297
2059 2105
2059 2181
2059 2218
2059 2335
2059 2555
2059 2568
2059 2595
2059 2738
2059 2872
2059 2983
2059 3003
2059 3362
2059 3485
2059 3560
2059 4601
2059 4686
2060 2134
2060 2189
2060 2254
2060 2359
2060 2584
2060 2705
2060 2841
2060 2912
2060 3721
2060 4056
2060 4187
2060 4224
2061 2197
2061 2217
2061 2555
2061 2612
2061 3213
2061 3760
2061 3895
2061 4625
2061 4663
2061 4765
2062 2079
2062 2664
2062 2780
2062 2787
2062 2851
2062 3924
2062 3960
2062 4556
2062 4776
2063 2240
2063 2735
2063 3032
2063 3368
2063 3653
2063 4302
2063 4783
2063 4992
2064 2104
2064 2276
2064 2660
2064 2763
2064 3423
2064 4911
2065 2298
2065 2327
2065 2332
2065 2593
2065 2758
2065 4533
2065 4839
2066 2109
2066 2128
2066 2193
2066 2419
2066 2450
2066 2483
2066 2538
2066 2963
2066 4595
2066 4607
2067 2185
2067 2238
2067 2303
2067 3315
2067 3458
2067 3721
2068 3960
2068 4011
2068 4462
2068 4490
2069 2079
2069 2087
2069 2906
2069 2957
2069 3193
2069 3226
2069 3571
2069 3839
2069 4085
2069 4113
2069 4420
2069 4784
2069 4950
2070 3312
2070 3564
2070 4008
2070 4154
2070 4418
2070 4531
2070 4801
2071 2438
2071 2511
2071 3050
2071 3411
2071 3598
2071 3797
2071 3994
2071 4015
2071 4078
2071 4798
2071 4855
2071 4904
2072 2297
2072 2461
2072 2493
2072 2572
2072 2969
2072 3051
2072 3180
2072 3216
2072 3234
2072 3602
2072 3780
2072 3789
2072 3905
2072 4128
2072 4238
2072 4326
2072 4681
2072 4809
2072 4922
2073 2272
2073 2466
2073 2897
2073 3611
2073 4120
2074 2535
2074 2684
2074 2763
2074 3198
2074 3211
2074 3310
2074 3481
2074 4070
2074 4086
2075 2264
2075 2829
2075 2980
2075 3100
2075 3187
2075 3540
2075 3714
2075 4143
2075 4439
2075 4610
2076 2313
2076 2872
2076 3431
2076 4649
2076 4667
2076 4769
2076 4960
2077 2330
2077 3077
2077 3597
2077 4367
2078 2395
2078 2651
2078 3669
2078 3912
2078 4083
2078 4085
2078 4240
2078 4741
2079 2113
2079 2407
2079 2459
2079 2737
2079 2818
2079 2853
2079 2927
2079 2965
2079 3141
2079 3163
2079 3466
2079 3767
2079 3939
2079 3992
2079 4077
2079 4263
2079 4284
2079 4351
2079 4673
2080 2344
2080 2519
2080 2989
2080 4600
2081 3032
2081 3071
2081 3164
2081 3387
2081 4565
2081 4985
2082 2611
2082 2827
2082 3083
2082 3179
2082 4136
2082 4664
2082 4764
2082 4923
2083 2716
2083 3214
2083 3908
2083 4634
2084 2307
2084 2628
2084 2734
2084 2864
2084 3689
2084 3963
2084 4048
2084 4590
2085 3873
2085 3875
2085 4036
2085 4037
2085 4251
2085 4299
2085 4356
2085 4986
2086 2198
2086 2416
2086 2571
2086 2833
2086 2974
2086 3304
2086 3833
2087 2136
2087 2283
2087 2648
2087 2654
2087 2998
2087 3974
2087 4023
2087 4894
2088 2878
2088 2941
2088 2961
2088 3423
2088 3440
2088 3778
2088 3933
2088 3969
2088 4513
2089 2136
2089 2183
2089 3906
2089 4147
2089 4982
2090 2173
2090 2439
2090 2950
2090 3020
2090 3550
2090 3641
2090 3703
2090 3804
2090 4212
2090 4323
2090 4483
2090 4539
2090 4915
2091 2126
2091 2139
2091 2187
2091 2214
2091 2220
2091 2239
2091 2428
2091 2531
2091 2604
2091 2658
2091 2744
2091 3168
2091 3204
2091 3294
2091 3537
2091 3777
2091 3998
2091 4542
2091 4852
2092 2106
2092 2385
2092 3397
2092 3688
2092 3898
2092 4010
2092 4643
2093 2400
2093 2601
2093 2770
2093 2772
2093 3446
2093 4595
2094 2582
2094 3145
2094 3501
2094 4209
2094 4229
2094 4374
2094 4439
2094 4871
2095 2096
2095 2470
2095 2478
2095 3673
2095 3693
2095 3790
2095 4135
2095 4555
2095 4626
2095 4751
2095 4803
2096 2170
2096 2470
2096 2478
2096 2498
2096 3585
2096 3730
2096 4249
2096 4626
2096 4803
2096 4968
2097 2662
2097 2792
2097 2826
2097 2925
2097 3117
2097 4279
2097 4375
2097 4605
2097 4846
2097 4905
2098 2178
2098 2236
2098 2642
2098 2823
2098 3600
2098 4221
2098 4295
2098 4407
2098 4486
2098 4929
2098 4965
2099 2356
2099 2446
2099 2501
2099 2504
2099 2626
2099 2794
2099 2802
2099 2843
2099 2865
2099 3002
2099 3017
2099 3311
2099 3351
2099 3462
2099 3544
2099 3662
2099 3760
2099 4154
2099 4368
2099 4536
2099 4729
2099 4818
2100 2271
2100 2351
2100 2737
2100 3749
2100 3837
2100 4030
2100 4087
2101 2207
2101 2524
2101 2526
2101 2620
2101 3020
2101 4128
2102 2514
2102 2780
2102 3332
2103 2702
2103 2743
2103 3248
2103 3775
2103 4232
2103 4829
2104 2254
2104 2276
2104 2284
2104 2301
2104 3656
2104 4009
2104 4712
2104 4853
2105 2122
2105 2174
2105 2610
2105 2693
2105 2753
2105 2970
2105 3435
2105 3818
2105 3861
2105 4016
2105 4110
2105 4131
2105 4154
2105 4354
2105 4498
2105 4960
2105 4979
2106 2580
2106 2902
2106 3856
2106 4622
2106 4964
2107 2130
2107 2183
2107 2842
2107 2982
2107 3077
2107 3105
2107 3342
2107 3723
2107 3965
2107 4467
2108 2271
2108 2437
2108 3183
2108 3207
2108 3354
2108 3751
2108 3789
2108 4159
2109 2675
2109 2897
2109 3159
2109 3215
2109 3235
2109 3290
2109 3294
2109 3345
2109 3579
2109 3658
2109 3750
2109 3946
2109 4614
2110 2571
2110 2807
2110 2880
2110 3083
2110 3797
2110 4106
2110 4166
2110 4295
2110 4507
2111 2132
2111 2359
2111 2555
2111 2882
2111 3057
2111 3698
2111 3774
2111 4409
2111 4461
2111 4704
2111 4812
2112 2191
2112 2551
2112 3188
2112 3494
2112 3645
2112 4296
2112 4341
2112 4354
2112 4423
2112 4502
2112 4637
2112 4647
2113 2267
2113 2977
2113 3732
2113 3814
2113 3854
2113 4304
2114 2612
2114 3090
2114 3876
2114 4104
2114 4332
2114 4546
2114 4607
2114 4680
2115 2168
2115 3216
2115 3609
2115 3837
2115 4030
2115 4320
2115 4694
2116 2195
2116 2895
2116 3544
2116 4022
2116 4120
2116 4167
2116 4405
2116 4795
2117 3348
2117 4596
2118 2222
2118 2633
2118 3261
2118 4650
2119 2685
2119 2873
2119 3309
2119 3594
2119 4707
2119 4781
2119 4999
2120 2159
2120 2835
2120 3682
2120 3696
2120 4787
2120 4788
2120 4906
2121 2621
2121 2656
2121 2817
2121 3532
2121 3797
2121 4293
2121 4829
2122 3045
2122 3169
2122 3189
2122 3766
2122 3888
2122 4210
2122 4322
2122 4612
2122 4824
2122 4856
2122 4942
2123 2230
2123 2268
2123 2699
2123 2819
2123 2935
2123 3654
2123 4054
2124 2302
2124 3650
2124 3757
2124 4995
2125 2155
2125 2166
2125 2332
2125 2449
2125 2517
2125 2604
2125 2833
2125 3230
2125 3456
2125 3486
2125 3548
2125 3862
2125 4404
2125 4623
2125 4632
2125 4858
2125 4872
2125 4947
2126 2273
2126 2969
2126 3402
2126 3823
2126 3913
2126 4192
2126 4997
2127 2410
2127 3525
2127 3728
2127 3955
2127 4432
2128 2370
2128 2685
2128 2732
2128 3424
2128 3510
2128 3621
2128 3880
2128 4078
2129 2270
2129 2651
2129 2711
2129 2921
2129 3078
2129 3147
2129 3247
2129 3978
2129 4420
2129 4693
2130 2481
2130 2550
2130 2696
2130 2842
2130 3077
2130 3105
2130 3342
2130 3843
2130 3975
2130 4467
2130 4575
2131 2396
2131 2459
2131 2570
2131 2969
2131 3274
2131 3308
2131 3552
2131 3610
2131 3626
2131 3862
2131 4019
2131 4353
2132 2260
2132 2569
2132 2579
2132 2818
2132 2946
2132 3793
2132 4065
2133 2369
2133 2413
2133 2490
2133 2891
2133 3198
2133 3592
2133 3758
2133 3876
2133 4143
2133 4934
2133 4970
2134 2189
2134 2359
2134 2908
2134 2912
2134 2932
2134 3083
2134 3383
2134 3905
2134 4056
2134 4187
2135 2364
2135 2691
2135 3027
2135 3192
2135 3840
2135 4100
2135 4552
2135 4635
2135 4672
2135 4735
2135 4777
2136 2283
2136 2445
2136 2648
2136 2838
2136 2998
2136 3974
2136 4023
2136 4221
2136 4406
2137 3008
2137 3503
2137 3574
2137 3586
2137 3800
2137 4115
2137 4187
2137 4766
2138 2492
2138 2916
2138 2946
2138 3068
2138 3187
2138 3437
2138 3768
2138 4086
2138 4133
2138 4159
2138 4445
2138 4491
2139 2318
2139 2511
2139 2516
2139 2567
2139 2976
2139 3883
2139 4442
2139 4498
2140 2487
2140 2808
2140 3029
2140 3062
2140 3107
2140 3658
2140 3804
2140 3952
2140 3972
2140 4388
2140 4741
2140 4949
2141 2492
2141 2574
2141 2845
2141 2911
2141 3278
2141 3535
2141 3625
2141 3943
2141 4120
2141 4489
2142 2201
2142 2447
2142 2618
2142 2907
2142 3127
2142 3260
2142 3266
2142 3622
2142 3644
2142 3790
2142 3803
2142 3950
2142 4105
2142 4163
2142 4174
2142 4365
2142 4819
2143 2195
2143 2625
2143 3958
2143 4653
2144 2208
2144 2493
2144 3718
2144 4220
2144 4825
2144 4998
2145 2170
2145 2261
2145 2367
2145 2385
2145 2401
2145 2496
2145 2806
2145 2916
2145 2986
2145 3068
2145 3187
2145 3415
2145 3473
2145 3768
2145 3883
2145 4070
2145 4082
2145 4086
2145 4163
2145 4333
2145 4445
2145 4659
2145 4761
2146 2437
2146 2744
2146 3496
2146 3668
2146 3972
2146 4136
2146 4172
2147 2190
2147 2344
2147 2432
2147 2453
2147 2582
2147 2739
2147 2863
2147 3243
2147 3329
2147 3618
2147 3676
2147 3711
2147 4074
2147 4674
2148 2180
2148 2318
2148 2778
2148 2875
2148 2883
2148 2899
2148 3023
2148 3199
2148 3939
2148 4204
2148 4591
2148 4666
2148 4825
2149 2159
2149 2492
2149 2869
2149 2899
2149 3099
2149 3502
2149 3840
2149 4678
2150 2732
2150 2813
2150 3174
2150 3391
2150 3408
2150 4519
2150 4588
2150 4733
2151 2517
2151 3083
2151 3111
2151 3195
2151 3545
2151 4345
2151 4572
2151 4702
2152 2314
2152 3166
2152 3788
2152 4249
2152 4314
2152 4475
2153 2288
2153 2512
2153 2776
2153 2824
2153 3465
2153 3806
2153 3996
2154 2337
2154 2398
2154 2957
2154 3176
2154 3455
2154 4583
2154 4600
2154 4755
2155 2604
2155 2655
2155 2833
2155 2856
2155 2971
2155 4623
2156 2626
2156 2889
2156 4058
2156 4146
2156 4740
2156 4975
2157 2226
2157 2597
2157 2624
2157 2695
2157 2743
2157 2920
2157 3292
2157 3473
2157 3551
2157 3717
2157 4268
2157 4672
2157 4855
2157 4952
2157 4972
2158 2615
2158 3101
2158 3307
2158 3659
2158 3758
2158 3818
2158 3891
2158 4074
2158 4093
2158 4180
2158 4767
2159 2578
2159 2652
2159 2685
2159 2744
2159 2754
2159 2899
2159 2924
2159 3507
2159 4143
2159 4345
2159 4475
2159 4755
2160 3020
2160 3092
2160 3210
2160 3707
2160 3770
2160 4102
2160 4471
2160 4674
2161 2229
2161 3047
2161 3184
2161 3447
2161 3678
2161 3833
2161 3998
2161 4006
2162 2271
2162 2727
2162 3064
2162 3389
2162 3500
2162 3652
2162 4213
2162 4435
2163 2218
2163 2360
2163 2650
2163 3131
2163 3208
2163 3629
2163 4857
2164 2231
2164 2460
2164 2488
2164 2548
2164 2603
2164 3171
2164 3407
2164 3865
2164 3899
2164 4121
2164 4267
2164 4282
2164 4330
2164 4505
2164 4840
2165 2198
2165 2468
2165 2826
2165 3242
2165 3454
2165 3723
2165 3801
2165 3849
2165 3901
2165 4055
2165 4608
2165 4689
2165 4755
2165 4807
2166 2368
2166 2543
2166 2779
2166 3737
2166 4277
2166 4357
2166 4410
2166 4462
2166 4524
2167 2736
2167 3060
2167 3528
2167 3729
2167 4252
2167 4308
2167 4388
2167 4457
2168 3216
2168 3609
2168 4030
2168 4340
2168 4569
2168 4601
2169 2617
2169 2628
2169 2659
2169 2853
2169 3005
2169 3139
2169 3273
2169 3745
2169 3786
2169 3987
2169 4076
2169 4699
2169 4721
2169 4775
2169 4948
2169 4961
2170 2401
2170 2492
2170 2851
2170 2916
2170 3068
2170 3187
2170 3685
2170 3768
2170 3979
2170 4086
2170 4133
2170 4149
2170 4287
2170 4396
2170 4445
2170 4498
2170 4761
2170 4833
2171 2430
2171 2854
2171 3123
2171 3222
2171 3604
2171 4293
2171 4410
2171 4612
2172 2991
2172 3074
2172 3713
2172 4046
2172 4162
2172 4917
2172 4927
2173 2431
2173 2439
2173 2535
2173 2626
2173 2734
2173 2950
2173 3346
2173 3377
2173 3554
2173 3703
2173 3844
2173 4149
2173 4323
2173 4408
2173 4906
2173 4915
2174 2953
2174 3112
2174 3351
2174 4197
2174 4614
2175 3079
2175 3385
2175 3576
2175 3638
2175 3662
2175 3707
2175 3819
2175 4014
2175 4036
2175 4072
2175 4135
2175 4190
2175 4256
2175 4457
2175 4587
2175 4856
2175 4911
2175 4967
2176 2284
2176 2737
2176 2789
2176 3017
2176 3715
2176 4066
2176 4185
2176 4617
2177 2724
2177 2756
2177 2811
2177 3735
2177 4502
2177 4635
2177 4889
2178 2854
2178 3085
2178 3245
2178 3339
2178 3875
2178 4801
2179 2288
2179 2512
2179 2824
2179 3146
2179 3674
2179 3738
2179 4385
2180 2973
2180 3328
2180 4276
2180 4603
2180 4726
2180 4896
2181 2361
2181 2484
2181 2486
2181 2536
2181 3377
2181 4003
2181 4461
2182 2456
2182 2581
2182 2701
2182 3100
2182 3205
2182 3308
2182 4019
2182 4222
2182 4458
2183 2340
2183 2515
2183 2529
2183 3675
2183 4273
2183 4692
2183 4859
2183 4959
2184 4919
2185 2211
2185 2295
2185 2519
2185 2721
2185 3720
2185 3770
2185 3833
2185 3968
2185 4150
2185 4557
2186 2265
2186 2508
2186 2709
2186 2780
2186 2930
2186 3321
2186 3713
2186 4157
2186 4357
2187 2197
2187 2214
2187 3204
2187 3537
2187 3777
2187 3894
2187 4086
2187 4302
2187 4368
2187 4560
2187 4629
2187 4852
2188 2858
2188 3008
2188 3276
2188 3599
2188 4032
2188 4096
2188 4122
2188 4583
2188 4807
2189 2359
2189 2560
2189 2738
2189 2912
2189 2977
2189 3206
2189 3327
2189 3418
2189 3726
2189 3885
2189 4056
2189 4187
2189 4539
2190 2270
2190 2889
2190 3054
2190 3075
2190 3101
2190 3464
2191 2551
2191 2569
2191 3291
2191 3409
2191 3494
2191 4354
2191 4502
2191 4637
2191 4647
2191 4883
2192 2242
2192 2456
2192 2464
2192 2533
2192 2906
2192 2915
2192 2965
2192 3014
2192 3108
2192 3348
2192 3452
2192 3651
2192 3785
2192 4150
2192 4361
2192 4411
2192 4435
2193 2903
2193 3181
2193 3631
2193 4775
2194 4796
2194 4815
2194 4894
2195 2283
2195 2895
2195 3026
2195 3551
2195 3588
2195 3941
2195 4022
2195 4342
2195 4405
2196 2788
2196 2927
2196 3452
2196 3954
2196 4338
2196 4497
2197 2462
2197 2508
2197 3282
2197 3321
2197 3526
2197 3709
2197 3722
2197 3928
2197 4030
2197 4261
2197 4393
2197 4863
2198 2522
2198 2613
2198 2825
2198 2862
2198 3409
2198 3607
2198 3823
2198 3945
2198 4116
2198 4376
2198 4377
2198 4587
2198 4770
2198 4779
2199 3108
2199 3176
2199 3411
2199 3582
2199 4440
2199 4892
2200 2423
2200 2931
2200 2971
2200 3000
2200 3052
2200 3088
2200 3243
2200 3792
2200 4042
2200 4088
2200 4772
2201 2243
2201 2570
2201 2969
2201 3610
2201 3626
2201 3660
2201 3722
2201 4148
2201 4353
2201 4550
2201 4794
2202 2232
2202 2386
2202 2889
2202 2968
2202 3774
2202 4621
2202 4904
2203 2296
2203 2559
2203 2567
2203 2686
2203 2977
2203 3028
2203 3200
2203 3475
2203 3533
2203 3567
2203 3641
2203 3850
2203 3851
2203 3922
2203 4002
2203 4215
2203 4389
2203 4718
2203 4931
2204 3116
2204 3176
2204 3262
2204 3359
2204 4393
2204 4430
2204 4493
2205 2304
2205 2384
2205 3022
2205 3176
2205 3793
2205 3997
2205 4110
2205 4474
2205 4623
2206 2275
2206 2343
2206 2406
2206 2564
2206 2598
2206 2639
2206 2833
2206 2864
2206 3424
2206 3664
2206 3857
2206 3881
2206 4119
2206 4183
2206 4322
2206 4602
2206 4781
2206 4978
2207 2760
2207 2902
2207 2991
2207 4177
2207 4325
2208 2651
2208 2923
2208 2977
2208 2984
2208 3718
2208 3767
2208 4912
2208 4998
2209 2671
2209 2730
2209 2764
2209 2937
2209 3173
2209 3570
2209 3727
2209 3858
2210 2212
2210 2385
2210 2429
2210 2622
2210 2727
2210 2954
2210 3152
2210 3488
2210 4522
2210 4726
2211 2668
2212 2529
2212 2786
2212 3285
2212 3478
2212 3789
2212 3807
2212 4244
2213 2323
2213 2463
2213 2582
2213 2668
2213 3350
2213 3406
2213 3963
2213 4220
2213 4285
2213 4670
2214 2241
2214 2293
2214 2627
2214 2895
2214 3204
2214 3537
2214 3777
2214 4698
2214 4852
2215 2570
2215 2595
2215 2642
2215 2757
2215 2969
2215 3610
2215 4560
2216 2277
2216 3565
2216 3755
2216 3821
2216 4089
2216 4266
2217 2795
2217 3265
2217 3816
2217 4935
2218 2275
2218 2310
2218 2643
2218 2714
2218 3187
2218 3249
2218 3294
2218 3685
2218 4006
2218 4279
2218 4520
2218 4551
2218 4717
2218 4859
2219 2555
2219 2867
2219 3085
2219 3289
2219 3375
2219 3689
2219 4351
2219 4378
2219 4951
2219 4985
2220 2320
2220 2398
2220 2550
2220 2609
2220 2774
2220 3928
2220 4167
2220 4702
2221 3315
2221 3948
2222 2339
2222 2633
2222 2655
2222 3261
2222 4795
2222 4848
2223 3235
2223 3372
2223 3574
2223 4130
2223 4141
2223 4241
2223 4340
2224 2309
2224 2576
2224 2765
2224 3390
2224 3659
2224 3969
2224 4192
2224 4463
2224 4490
2225 2832
2225 3116
2225 3443
2225 3588
2225 4581
2225 4955
2226 2624
2226 2717
2226 2929
2226 3382
2226 3717
2227 3082
2227 3188
2227 3573
2227 3647
2227 3868
2227 4764
2228 3270
2228 3908
2228 3996
2228 4521
2228 4762
2228 4797
2228 4958
2229 2912
2229 3392
2229 3889
2229 4095
2229 4197
2229 4917
2230 2614
2230 2757
2230 2935
2230 3202
2230 3733
2230 4743
2230 4931
2230 4954
2231 2358
2231 2947
2231 3100
2231 3744
2231 3804
2232 2328
2232 2386
2232 2451
2232 2601
2232 2859
2232 2952
2232 3736
2232 4326
2232 4855
2232 4904
2233 2266
2233 2347
2233 2614
2233 2717
2233 3613
2233 4360
2233 4930
2234 2345
2234 2667
2234 3682
2235 2277
2235 2386
2235 2865
2235 3131
2235 3540
2235 3554
2235 3586
2235 3719
2235 4533
2236 3103
2236 3589
2236 4295
2236 4965
2237 2438
2237 3082
2237 3416
2237 4083
2237 4128
2237 4240
2237 4746
2238 3315
2238 3539
2238 3637
2238 3856
2238 4539
2239 2313
2239 2344
2239 2856
2239 3219
2239 3349
2239 3448
2239 3719
2239 3722
2239 4395
2239 4396
2239 4613
2239 4617
2239 4752
2239 4787
2240 2268
2240 2406
2240 2450
2240 2573
2240 2638
2240 2956
2240 3230
2240 3516
2240 3550
2240 4247
2240 4309
2240 4432
2240 4489
2240 4490
2240 4780
2240 4793
2240 4795
2241 2541
2241 2869
2241 3474
2241 3786
2241 3967
2241 4063
2241 4130
2241 4211
2241 4235
2241 4361
2241 4444
2241 4500
2241 4584
2242 2571
2242 2880
2242 3188
2242 3797
2242 4001
2242 4429
2242 4822
2243 2649
2243 2873
2243 3030
2243 3400
2243 3814
2243 3989
2243 4103
2243 4871
2244 2492
2244 4002
2244 4510
2244 4621
2244 4901
2245 2469
2245 2505
2245 3075
2245 3451
2245 3667
2245 4129
2246 2430
2246 2730
2246 2854
2246 3222
2246 3281
2246 4293
2246 4609
2246 4612
2247 2778
2247 2973
2247 3096
2247 3110
2247 4665
2248 2810
2248 2973
2248 3211
2248 3289
2248 3473
2248 4312
2249 2688
2249 2854
2249 2936
2249 3177
2249 3490
2249 3714
2249 4302
2249 4845
2249 4867
2250 2575
2250 2670
2250 2975
2250 3587
2250 3662
2250 4843
2251 3417
2251 3856
2251 4528
2251 4544
2251 4980
2252 2505
2252 2948
2252 3167
2252 4246
2252 4593
2252 4710
2252 4779
2253 2891
2253 3080
2253 3547
2253 3849
2253 4646
2253 4787
2254 3067
2254 3188
2254 3936
2255 2574
2255 3392
2255 3489
2255 3596
2255 3848
2256 2529
2256 2685
2256 3266
2256 3281
2256 3408
2256 3444
2256 4209
2256 4329
2256 4806
2257 3050
2257 3287
2257 3408
2257 3846
2257 4087
2258 2636
2258 2732
2258 3062
2258 3174
2258 3241
2258 3408
2258 4503
2258 4519
2258 4970
2259 3078
2259 3203
2259 3348
2259 4871
2260 2312
2260 2345
2260 2491
2260 2569
2260 3205
2260 3327
2260 3464
2260 3486
2260 3860
2260 3961
2260 4003
2260 4065
2260 4227
2260 4316
2260 4683
2260 4812
2260 4972
2260 4975
2261 2428
2261 3506
2261 3660
2261 4333
2261 4874
2262 2361
2262 3168
2262 3188
2262 4386
2262 4644
2262 4917
2262 4962
2263 2375
2263 2539
2263 3213
2263 4113
2263 4273
2263 4312
2263 4628
2263 4841
2263 4854
2263 4926
2263 4990
2264 2677
2264 3429
2264 3497
2264 3760
2264 4610
2264 4693
2265 2666
2265 2780
2265 2930
2265 3850
2265 4162
2265 4273
2266 2347
2266 2614
2266 3613
2266 3820
2266 4225
2266 4360
2266 4570
2266 4890
2267 2282
2267 2494
2267 2562
2267 3160
2267 3212
2267 3220
2267 3228
2267 3251
2267 3480
2267 3827
2267 3942
2267 4163
2267 4214
2268 2333
2268 2538
2268 2708
2268 3031
2268 3267
2268 3306
2268 3370
2268 3733
2268 3744
2268 3928
2268 4114
2268 4317
2268 4544
2268 4559
2268 4805
2268 4995
2269 2647
2269 3209
2269 3852
2269 4954
2270 2625
2270 2889
2270 3464
2270 4920
2271 2433
2271 2625
2271 2649
2271 2725
2271 3183
2271 3244
2271 3360
2271 3620
2271 3760
2271 3942
2271 3966
2271 4399
2271 4450
2271 4611
2271 4690
2271 4704
2271 4764
2272 2456
2272 2788
2272 2801
2272 2870
2272 3048
2272 4235
2273 2333
2273 3015
2273 3913
2273 4192
2273 4490
2273 4589
2273 4876
2274 2392
2274 3251
2274 3504
2274 3518
2274 3635
2274 3655
2274 3913
2274 4026
2274 4164
2274 4508
2274 4520
2274 4743
2275 2513
2275 2784
2275 2804
2275 2870
2275 2904
2275 3493
2275 3518
2275 3834
2275 4063
2275 4124
2275 4167
2275 4247
2275 4371
2275 4511
2275 4551
2275 4830
2275 4846
2275 4900
2276 2600
2276 2897
2276 3145
2276 3722
2276 4165
2276 4657
2277 2385
2277 2476
2277 3821
2277 4066
2277 4174
2278 2327
2278 2369
2278 2370
2278 2412
2278 2428
2278 2498
2278 2499
2278 2704
2278 2754
2278 3274
2278 3633
2278 3646
2278 3898
2278 4333
2278 4468
2278 4645
2279 2412
2279 2611
2279 3167
2279 3743
2279 3977
2279 4120
2279 4369
2279 4536
2279 4633
2280 2631
2280 3192
2280 3495
2280 3621
2280 4441
2280 4627
2281 2355
2281 2626
2281 2823
2281 3313
2281 3963
2281 4087
2281 4366
2281 4642
2281 4759
2282 2483
2282 2886
2282 2957
2282 2996
2282 3831
2282 4035
2282 4536
2282 4552
2282 4699
2282 4710
2282 4961
2283 2334
2283 2561
2283 2648
2283 4356
2283 4406
2283 4563
2283 4715
2283 4999
2284 2741
2284 3103
2284 3733
2284 4343
2284 4722
2285 2579
2285 2631
2285 3161
2285 3360
2285 3394
2285 4072
2285 4349
2285 4618
2286 2325
2286 2941
2286 3372
2286 3507
2286 3641
2286 3790
2286 3878
2287 2465
2287 2650
2287 3513
2287 3811
2287 3820
2287 4912
2287 4934
2288 2512
2288 2824
2288 3256
2288 3405
2288 3465
2288 4452
2288 4579
2289 2655
2289 3177
2289 4234
2289 4417
2289 4462
2290 2397
2290 2535
2290 2614
2290 2673
2290 2728
2290 2780
2290 2857
2290 3048
2290 3384
2290 3405
2290 3418
2290 3856
2290 4179
2290 4334
2290 4521
2290 4589
2290 4798
2290 4903
2291 2749
2291 2968
2291 3332
2291 3686
2291 4006
2291 4757
2291 4815
2292 2333
2292 2445
2292 2571
2292 2620
2292 3616
2292 3644
2292 3791
2292 4181
2292 4356
2292 4813
2292 4955
2293 3404
2293 3934
2293 4116
2293 4367
2293 4766
2294 2512
2294 3885
2294 3975
2294 4333
2294 4538
2294 4857
2295 3355
2295 3599
2295 3664
2295 3753
2295 3872
2295 3897
2295 4097
2295 4160
2295 4880
2295 4954
2296 2494
2296 2537
2296 2596
2296 2686
2296 2917
2296 2925
2296 3475
2296 3533
2296 3649
2296 3715
2296 4002
2296 4215
2297 2581
2297 2778
2297 2997
2297 3073
2297 3191
2297 3305
2297 4063
2297 4150
2297 4271
2297 4345
2297 4376
2297 4875
2298 2671
2298 2973
2298 3173
2298 3379
2298 3496
2298 3640
2298 3715
2298 3968
2298 4518
2298 4926
2299 2624
2299 2677
2299 2908
2299 3811
2299 4339
2299 4341
2299 4363
2299 4922
2300 2306
2300 2552
2300 3022
2300 3080
2300 3547
2300 3615
2300 3849
2300 3913
2300 3970
2300 4008
2300 4033
2300 4063
2300 4789
2301 3448
2301 3597
2301 3662
2301 4188
2301 4368
2302 2703
2302 2862
2302 3510
2302 3716
2302 3771
2302 4629
2302 4785
2303 2459
2303 2666
2303 2726
2303 2827
2303 3095
2303 3418
2303 4529
2303 4623
2303 4932
2304 2599
2304 2766
2304 2781
2304 3288
2304 3369
2304 3709
2304 4402
2304 4702
2304 4711
2304 4946
2305 2325
2305 3077
2305 3303
2305 3354
2305 4139
2305 4253
2306 2458
2306 3041
2306 3098
2306 3215
2306 3291
2306 3439
2306 3912
2306 3964
2306 4188
2306 4300
2306 4511
2306 4683
2306 4693
2306 4834
2306 4957
2307 2521
2307 3139
2307 3732
2307 3889
2307 4357
2307 4759
2308 2867
2308 2956
2308 3091
2308 3806
2308 3973
2308 4092
2308 4118
2308 4305
2308 4654
2308 4781
2309 2613
2309 2788
2309 3035
2309 3204
2309 3486
2309 4200
2309 4356
2309 4425
2309 4606
2310 2400
2310 2448
2310 2577
2310 2714
2310 3011
2310 3118
2310 3169
2310 3249
2310 3349
2310 3431
2310 3599
2310 4216
2310 4305
2310 4401
2310 4431
2310 4717
2311 3012
2311 3536
2311 3606
2311 4272
2311 4466
2311 4496
2311 4587
2311 4928
2312 2418
2312 3137
2312 3250
2312 3254
2312 3778
2312 3921
2312 4707
2312 4885
2313 2338
2313 3132
2313 3323
2313 3364
2313 3431
2313 4217
2313 4649
2313 4667
2313 4769
2313 4960
2314 2331
2314 2618
2314 3166
2314 4005
2314 4232
2314 4249
2314 4648
2315 2620
2315 2714
2315 2816
2315 2884
2315 2984
2315 3089
2315 3102
2315 3264
2315 3275
2315 3480
2315 3720
2315 3807
2315 3866
2315 4245
2315 4375
2315 4423
2315 4485
2315 4524
2315 4598
2315 4719
2316 2380
2316 2500
2316 2620
2316 2728
2316 2809
2316 3141
2316 3403
2316 3556
2316 4576
2317 2421
2317 2431
2317 2972
2317 3135
2317 3437
2317 3847
2317 4317
2317 4818
2317 4851
2317 4917
2318 2516
2318 2680
2318 3171
2318 3629
2318 4169
2318 4442
2318 4603
2319 2341
2319 2361
2319 2619
2319 2914
2319 3116
2319 3190
2319 3213
2319 3354
2319 3429
2319 4035
2319 4189
2319 4468
2319 4473
2319 4480
2320 2550
2320 2609
2320 2677
2320 2774
2320 2869
2320 3696
2320 4005
2320 4129
2320 4417
2320 4702
2321 3099
2321 3102
2321 3466
2321 3741
2321 3769
2321 3868
2321 4005
2321 4308
2321 4654
2322 3782
2322 4557
2322 4573
2322 4984
2323 3232
2323 4084
2323 4181
2323 4235
2323 4515
2324 2909
2324 2928
2324 3218
2324 3223
2324 3409
2324 3617
2324 3899
2324 4179
2324 4495
2324 4506
2324 4577
2324 4814
2324 4867
2325 3014
2325 3868
2325 4139
2325 4596
2325 4926
2326 2424
2326 2909
2326 3093
2326 4592
2326 4931
2327 2740
2327 3277
2327 3315
2327 3325
2327 4007
2327 4146
2327 4226
2327 4333
2327 4412
2327 4904
2327 4947
2327 4983
2328 2582
2328 2689
2328 2713
2328 2728
2328 2743
2328 3335
2328 3412
2328 3827
2328 3940
2328 3964
2328 4066
2328 4194
2328 4526
2328 4571
2328 4796
2328 4820
2328 4898
2329 2482
2329 2827
2329 3289
2330 2371
2330 2496
2330 2750
2330 3823
2330 4018
2330 4355
2330 4520
2330 4762
2330 4896
2330 4944
2331 2836
2331 3742
2331 4369
2331 4502
2331 4607
2331 4698
2332 3700
2332 3817
2332 4587
2332 4948
2333 2445
2333 2620
2333 2867
2333 3791
2333 4138
2333 4350
2333 4910
2333 4955
2334 2412
2334 2467
2334 3680
2334 3844
2334 3937
2334 4541
2334 4915
2335 2738
2335 2983
2335 3234
2335 3560
2335 3919
2335 4169
2335 4413
2336 2345
2336 2399
2336 2408
2336 2521
2336 2677
2336 2727
2336 3584
2336 3858
2336 4191
2337 2398
2337 2724
2337 2793
2337 3144
2337 3455
2337 4129
2337 4405
2337 4438
2337 4600
2338 2511
2338 2692
2338 2772
2338 2877
2338 2966
2338 3223
2338 3265
2338 3274
2338 4377
2338 4804
2338 4943
2338 4984
2339 2633
2339 2839
2339 2962
2339 3249
2339 3261
2339 3803
2339 4848
2339 4918
2340 2419
2340 2515
2340 3437
2340 3534
2340 4273
2340 4600
2340 4697
2340 4956
2341 2914
2341 3213
2341 3354
2341 4189
2341 4473
2342 2487
2342 2789
2342 3285
2342 3896
2342 4296
2342 4519
2342 4545
2342 4916
2343 2703
2343 3139
2343 3269
2343 3510
2343 3716
2343 3771
2343 3774
2343 4489
2343 4654
2344 2521
2344 3485
2344 3900
2344 4495
2344 4544
2345 2408
2345 2702
2345 2850
2345 3345
2345 3425
2345 3652
2345 3691
2345 3767
2345 3803
2345 4018
2345 4308
2345 4371
2345 4384
2345 4727
2345 4750
2345 4830
2346 2396
2346 2496
2346 2735
2346 2763
2346 3197
2346 4410
2346 4531
2347 2530
2347 2614
2347 2630
2347 3178
2347 3367
2347 3613
2347 3797
2347 4155
2347 4360
2347 4729
2347 4827
2347 4930
2348 2401
2348 2490
2348 2492
2348 2673
2348 2916
2348 3187
2348 3624
2348 4133
2348 4445
2348 4585
2349 2369
2349 2390
2350 2794
2350 3628
2350 3915
2351 3140
2351 3297
2351 3440
2351 3694
2351 3837
2351 4087
2351 4298
2351 4542
2352 2579
2352 3243
2352 3660
2352 4027
2352 4384
2352 4615
2352 4626
2353 2555
2353 2712
2353 2737
2353 2859
2353 3016
2353 4611
2354 2548
2354 3306
2354 3319
2354 4567
2354 4799
2354 4930
2355 2402
2355 2963
2355 3064
2355 3500
2355 4213
2355 4223
2355 4790
2356 2728
2356 2843
2356 3002
2356 3351
2357 2753
2357 3025
2357 4153
2357 4377
2357 4641
2357 4872
2358 2987
2358 3033
2358 3260
2358 3327
2358 3369
2358 3434
2358 3524
2358 3651
2358 4397
2359 2985
2359 3249
2359 3471
2359 4187
2360 2580
2360 3075
2360 3131
2360 3629
2360 3795
2360 3985
2360 4725
2360 4831
2360 4857
2360 4897
2360 4918
2361 2486
2361 2536
2361 2626
2361 3006
2361 3377
2361 3437
2361 3657
2361 4003
2361 4461
2362 2912
2362 3750
2362 4276
2362 4818
2362 4844
2363 2951
2363 3150
2363 3773
2363 3937
2363 4068
2363 4550
2364 2376
2364 2412
2364 2424
2364 2438
2364 2672
2364 2861
2364 3052
2364 3368
2364 3446
2364 3529
2364 3603
2364 3763
2364 3775
2364 3874
2364 4079
2364 4391
2364 4569
2364 4675
2364 4887
2364 4986
2365 2461
2365 3282
2365 4496
2365 4722
2366 2484
2366 3260
2366 3562
2366 3668
2366 3787
2366 3826
2366 4048
2366 4366
2366 4700
2366 4726
2367 2732
2367 3408
2367 3599
2367 4519
2368 2963
2368 3126
2368 3148
2368 3253
2368 3357
2368 4462
2368 4716
2369 2413
2369 2490
2369 2651
2369 2662
2369 2891
2369 2904
2369 3151
2369 3332
2369 3448
2369 3522
2369 3546
2369 3575
2369 3604
2369 3876
2369 4157
2369 4934
2370 2685
2370 3880
2370 4089
2370 4267
2370 4640
2371 2655
2371 2979
2371 3262
2371 3946
2371 4153
2371 4506
2371 4696
2372 2396
2372 2616
2372 3319
2372 3643
2372 3829
2372 4410
2372 4550
2373 2493
2373 3014
2373 3835
2373 3999
2373 4263
2373 4705
2374 2515
2374 2844
2374 2930
2374 3102
2374 3502
2375 2785
2375 2992
2375 3104
2375 3281
2375 3445
2375 3641
2375 3837
2375 4379
2376 2438
2376 2725
2376 2861
2376 3055
2376 3446
2376 3775
2376 4569
2377 2461
2377 2588
2377 3008
2377 3574
2378 2440
2378 2443
2378 2655
2378 2988
2378 3290
2378 3348
2378 3645
2378 4085
2379 4066
2379 4257
2379 4574
2379 4613
2379 4771
2379 4992
2380 2572
2380 2809
2380 3540
2380 3556
2380 3878
2380 4482
2380 4576
2380 4782
2380 4816
2380 4837
2381 2611
2381 2628
2381 3484
2381 4607
2381 4822
2382 2839
2382 2841
2382 3007
2382 3597
2382 3931
2382 3963
2382 4430
2382 4821
2383 2431
2383 2637
2383 2742
2383 3280
2383 3471
2383 3641
2383 3743
2383 4040
2383 4044
2383 4223
2383 4349
2383 4890
2383 4897
2384 2489
2384 2588
2384 3423
2384 3874
2384 3876
2384 4657
2385 3092
2385 4429
2385 4505
2385 4602
2385 4632
2385 4643
2386 2936
2386 2952
2386 2968
2386 3435
2386 3672
2386 4391
2386 4558
2386 4581
2386 4845
2386 4855
2386 4904
2386 4913
2386 4924
2386 4934
2387 2494
2387 2550
2387 3291
2387 4317
2387 4352
2387 4671
2387 4792
2388 2881
2388 2886
2388 4000
2388 4720
2389 2626
2389 3639
2389 4106
2389 4146
2389 4277
2389 4459
2389 4606
2389 4740
2390 2995
2390 3652
2390 3971
2390 4228
2390 4448
2391 2560
2391 2890
2391 2993
2391 3039
2391 3073
2391 3134
2391 3548
2391 4254
2391 4266
2391 4844
2391 4853
2391 4892
2392 3655
2392 4026
2392 4164
2392 4494
2393 2456
2393 3047
2393 3354
2393 3439
2393 3687
2393 4150
2393 4638
2393 4902
2394 2828
2394 2829
2394 2883
2394 3228
2394 3749
2394 3851
2394 3983
2394 4107
2394 4185
2394 4909
2395 3095
2395 3142
2395 4361
2395 4438
2395 4915
2396 2428
2396 2735
2396 3101
2396 3550
2396 3819
2396 4257
2396 4410
2396 4958
2396 4973
2397 2904
2397 3384
2397 3418
2397 3425
2397 4798
2398 2611
2398 2793
2398 2887
2398 3164
2398 3265
2398 3309
2398 3455
2398 3965
2398 4086
2398 4206
2398 4336
2398 4600
2399 3217
2399 3415
2399 3601
2399 3873
2399 4045
2400 2655
2400 3261
2400 4138
2400 4467
2400 4956
2401 2492
2401 2909
2401 2916
2401 2980
2401 3068
2401 3187
2401 3907
2401 4149
2401 4248
2401 4375
2401 4761
2402 2546
2402 2948
2402 3064
2402 3500
2402 4753
2402 4790
2402 4839
2403 2594
2403 3127
2403 3403
2403 3606
2403 3956
2403 4350
2404 3762
2404 4656
2404 4890
2405 2508
2405 3367
2405 4195
2405 4546
2406 2464
2406 3090
2406 4403
2406 4525
2406 4542
2407 2737
2407 2795
2407 2853
2407 3118
2407 3992
2407 4263
2407 4638
2408 3014
2408 3246
2408 3345
2408 3707
2408 3820
2408 3912
2408 4040
2408 4370
2409 2820
2409 3024
2409 3561
2409 3731
2409 3896
2409 3931
2409 4081
2409 4114
2409 4262
2410 3163
2410 3174
2410 3455
2410 4458
2410 4709
2411 2740
2411 3410
2411 3538
2411 3734
2411 3805
2411 4399
2411 4470
2411 4903
2412 3264
2412 4269
2412 4560
2413 2490
2413 3336
2413 3448
2413 3876
2414 2758
2414 2859
2414 3486
2414 3853
2414 4420
2414 4533
2414 4899
2415 3460
2415 3481
2415 3581
2415 3711
2415 3917
2415 3980
2415 3990
2415 4017
2415 4758
2415 4844
2416 2508
2416 2760
2416 2890
2416 3304
2416 3589
2416 4180
2416 4524
2416 4991
2417 2714
2417 3222
2417 3236
2417 3425
2417 3426
2417 3756
2417 4303
2417 4620
2418 2535
2418 2697
2418 2728
2418 2846
2418 3107
2418 3191
2418 3252
2418 3298
2418 3545
2418 3787
2418 4319
2418 4359
2418 4384
2418 4579
2418 4714
2418 4781
2419 2616
2419 3097
2419 3666
2419 3791
2419 4137
2419 4429
2420 2770
2420 3026
2420 3045
2420 4164
2421 2926
2421 2972
2421 3201
2421 3351
2421 3668
2421 3896
2421 4202
2421 4405
2421 4818
2421 4917
2422 3063
2422 4434
2422 4729
2423 2497
2423 2794
2423 2936
2423 3331
2423 3930
2423 4590
2424 2578
2424 2603
2424 3244
2424 3839
2424 4329
2424 4567
2425 3064
2425 3445
2425 3500
2425 4213
2425 4446
2426 2528
2426 3379
2426 3548
2426 3655
2426 4269
2426 4279
2426 4842
2427 2835
2427 3642
2427 3649
2427 4267
2428 2498
2428 2499
2428 2706
2428 2740
2428 2742
2428 3092
2428 4421
2428 4562
2428 4618
2428 4827
2429 2626
2429 2643
2429 2655
2429 2727
2429 2794
2429 3152
2429 3245
2429 3349
2429 3418
2429 3488
2429 4011
2429 4143
2429 4811
2429 4842
2429 4893
2430 3222
2430 3732
2430 4196
2430 4293
2430 4612
2431 2637
2431 2896
2431 3179
2431 3743
2431 3793
2431 3820
2431 4533
2431 4890
2432 2440
2432 2739
2432 2869
2432 3476
2432 4074
2433 2527
2433 2831
2433 3180
2433 4472
2433 4573
2434 2748
2434 3085
2434 3185
2434 3339
2434 3647
2434 3875
2434 3974
2434 4086
2434 4473
2434 4587
2434 4801
2435 2647
2435 3568
2435 3590
2435 3659
2435 3794
2435 4135
2435 4626
2435 4715
2435 4733
2436 2459
2436 2762
2436 2902
2436 2973
2436 3068
2436 3457
2436 4427
2437 2946
2437 3158
2437 3410
2437 4061
2437 4071
2438 2861
2438 3052
2438 3225
2438 3236
2438 3383
2438 3446
2438 3775
2438 4083
2438 4355
2438 4391
2438 4569
2438 4797
2438 4959
2439 2688
2439 2690
2439 2950
2439 3703
2439 3771
2439 4260
2439 4323
2440 3873
2440 4063
2440 4157
2440 4459
2440 4541
2441 2570
2441 2969
2441 3610
2441 3626
2441 4259
2442 2982
2442 3174
2442 3275
2442 3295
2442 3525
2442 3555
2442 3751
2442 3971
2442 4407
2442 4701
2442 4853
2443 2674
2443 2973
2443 3645
2444 2928
2444 3081
2444 3586
2444 3955
2444 4097
2444 4906
2444 4980
2445 2620
2445 3003
2445 3097
2445 3324
2445 3791
2445 4955
2445 4986
2446 2449
2446 4095
2446 4268
2446 4300
2446 4642
2446 4881
2447 2451
2447 2907
2447 3127
2447 3913
2447 4365
2447 4441
2447 4967
2448 2492
2448 3147
2448 3187
2448 3191
2448 3292
2448 3798
2448 4146
2448 4938
2449 2595
2449 3083
2449 3553
2449 3655
2449 3722
2449 3794
2449 4129
2449 4188
2449 4195
2449 4509
2449 4546
2450 2483
2450 2747
2450 3224
2450 3240
2450 3495
2450 3618
2450 3649
2450 3783
2450 3849
2450 4466
2450 4595
2450 4767
2451 2788
2451 3035
2451 3750
2451 4242
2451 4345
2451 4986
2452 2745
2452 3207
2452 3619
2452 3773
2452 3788
2452 4178
2452 4268
2452 4398
2452 4628
2452 4694
2452 4981
2453 2641
2453 3053
2453 3132
2453 3453
2453 3574
2453 3887
2453 3948
2453 4165
2453 4274
2453 4586
2454 2655
2454 2952
2454 3530
2454 3534
2454 3715
2454 3958
2454 4103
2454 4470
2455 2494
2455 2593
2455 3073
2455 4352
2455 4671
2455 4846
2456 2465
2456 2542
2456 2878
2456 3047
2456 3074
2456 3225
2456 3365
2456 3370
2456 3385
2456 3439
2456 3976
2456 3986
2456 4094
2456 4319
2456 4626
2456 4638
2456 4902
2456 4913
2457 2615
2457 2996
2457 3071
2457 3101
2457 3625
2457 3637
2457 3733
2457 4669
2458 2547
2458 2776
2458 2876
2458 3041
2458 3098
2458 3308
2458 3729
2458 3912
2458 4300
2458 4455
2458 4834
2459 2627
2459 2653
2459 3244
2459 3572
2459 4075
2459 4099
2459 4150
2459 4505
2459 4660
2459 4829
2460 4362
2460 4498
2461 2570
2461 2622
2461 2652
2461 2653
2461 3140
2461 3419
2461 3514
2461 3809
2461 3845
2461 3885
2461 3945
2461 4603
2461 4674
2461 4917
2461 4927
2462 2813
2462 3418
2462 3507
2462 4116
2462 4627
2463 2916
2463 2949
2463 3355
2463 4244
2463 4338
2463 4729
2463 4867
2464 2994
2464 3090
2464 3192
2464 3577
2464 3621
2464 4114
2464 4325
2464 4338
2464 4403
2464 4525
2464 4942
2464 4979
2465 3095
2465 3567
2465 3695
2465 4134
2465 4775
2466 2726
2466 2860
2466 2986
2466 3032
2466 3066
2466 3149
2466 3512
2466 3611
2466 3851
2466 4045
2466 4261
2466 4338
2466 4416
2466 4501
2466 4620
2466 4864
2467 2644
2467 2964
2467 2992
2467 3119
2467 3430
2467 4046
2467 4157
2467 4471
2467 4519
2468 2826
2468 3901
2468 4608
2468 4657
2468 4737
2469 2761
2469 3025
2469 3053
2469 3075
2469 3667
2469 3878
2469 4038
2469 4109
2469 4293
2470 3788
2470 3889
2470 4133
2470 4626
2470 4968
2471 4022
2471 4312
2471 4328
2472 3245
2472 3420
2472 3487
2472 3562
2472 3758
2472 3814
2472 3818
2472 3827
2472 4080
2472 4260
2472 4696
2473 2790
2473 2940
2473 3159
2473 3242
2473 3382
2473 3591
2474 2669
2474 2983
2474 3086
2474 3283
2474 3521
2474 4092
2474 4674
2475 2696
2475 2749
2475 2816
2475 3624
2475 4243
2476 2940
2476 2987
2476 3974
2476 4070
2476 4367
2477 2963
2477 3162
2477 3920
2477 3984
2477 4556
2477 4611
2477 4801
2477 4929
2477 4970
2478 3831
2478 4626
2478 4968
2479 2934
2479 3176
2479 3702
2479 4788
2480 2635
2480 2785
2480 2919
2480 3139
2480 3765
2480 4017
2481 2643
2481 2712
2481 2908
2481 3028
2481 3164
2481 3217
2481 3995
2481 4516
2481 4570
2481 4599
2482 2886
2482 3064
2482 4878
2483 2538
2483 2594
2483 2747
2483 3274
2483 3632
2483 4595
2484 3668
2484 4048
2484 4538
2484 4726
2484 4845
2485 3206
2485 3849
2485 4041
2485 4110
2485 4153
2485 4455
2486 2490
2486 2536
2486 2553
2486 2866
2486 3355
2486 3374
2486 3377
2486 3412
2486 3682
2486 4003
2486 4974
2487 3348
2487 3474
2487 3488
2487 3635
2487 3876
2487 4117
2487 4232
2487 4233
2487 4296
2487 4396
2487 4545
2487 4590
2487 4916
2488 2603
2488 2874
2488 2922
2488 3007
2488 3685
2488 4330
2488 4630
2488 4840
2489 3250
2489 3792
2489 4146
2489 4553
2490 2891
2490 3036
2490 3111
2490 3196
2490 3333
2490 3448
2490 3832
2490 3876
2490 4293
2490 4759
2490 4804
2490 4934
2491 2661
2491 2868
2491 2925
2491 3615
2491 4399
2491 4737
2492 2769
2492 2881
2492 2916
2492 2944
2492 2980
2492 3068
2492 3187
2492 3311
2492 3356
2492 3768
2492 4086
2492 4133
2492 4163
2492 4659
2493 2673
2493 2995
2493 3117
2493 3128
2493 3161
2493 3356
2493 3835
2493 3999
2493 4510
2493 4661
2493 4705
2493 4889
2493 4947
2494 2593
2494 2986
2494 3194
2494 3663
2494 3705
2494 4008
2494 4149
2494 4352
2494 4558
2494 4629
2495 2886
2495 2934
2495 3215
2495 3450
2495 4682
2495 4891
2496 2832
2496 3303
2496 3398
2496 3418
2496 3529
2496 4103
2496 4270
2496 4625
2496 4719
2496 4892
2496 4921
2497 2936
2497 3331
2497 4705
2497 4760
2497 4883
2498 2581
2498 3996
2498 4168
2498 4186
2498 4337
2498 4421
2498 4478
2498 4902
2499 2578
2499 2742
2499 2899
2499 3325
2499 3438
2499 3490
2499 3540
2499 3916
2499 4003
2499 4226
2499 4333
2499 4468
2499 4478
2499 4543
2500 2630
2500 2671
2500 2891
2500 2898
2500 2927
2500 3346
2500 3401
2500 3523
2500 3612
2500 4150
2500 4321
2500 4798
2501 3589
2501 3809
2501 4377
2501 4583
2501 4947
2502 3099
2502 3409
2502 3466
2502 3741
2502 3769
2502 4286
2502 4654
2503 2769
2503 2785
2503 3949
2503 4059
2503 4528
2504 2848
2504 2985
2504 3366
2504 3661
2504 4131
2504 4442
2505 2631
2505 2948
2505 3120
2505 3348
2505 4081
2505 4314
2506 2872
2506 3122
2506 3264
2506 3478
2506 3565
2506 3600
2506 3973
2506 4518
2506 4744
2507 2518
2507 3087
2507 3253
2507 3348
2507 4027
2508 3159
2508 3282
2508 3526
2508 3665
2508 3759
2508 4176
2508 4261
2508 4412
2508 4766
2508 4790
2509 2953
2509 2969
2509 3112
2509 3544
2509 3817
2509 4983
2510 3026
2510 3109
2510 3134
2510 3229
2510 3310
2510 3900
2510 4063
2510 4577
2510 4652
2511 3948
2511 3994
2511 4775
2511 4954
2512 2824
2512 3256
2512 3267
2512 3306
2512 3405
2512 3465
2512 3466
2512 3477
2512 3674
2512 3925
2512 4112
2512 4415
2512 4438
2512 4900
2512 4954
2513 2784
2513 3390
2513 3834
2513 4551
2513 4830
2514 2583
2514 2768
2514 2772
2514 3415
2514 3500
2514 3707
2514 4516
2514 4780
2514 4967
2515 4273
2515 4697
2515 4872
2516 2567
2516 3273
2516 3552
2516 3939
2516 4442
2516 4498
2516 4749
2516 4777
2517 3071
2517 3247
2517 3433
2517 3737
2517 4072
2517 4258
2517 4357
2517 4377
2517 4392
2517 4535
2518 2727
2518 2733
2518 3274
2518 3634
2518 3867
2518 4179
2518 4761
2518 4969
2519 2989
2519 3485
2519 3585
2519 3723
2519 4947
2520 2680
2520 2766
2520 3211
2520 3680
2521 2734
2521 2864
2521 3118
2521 4043
2521 4170
2521 4590
2522 2825
2522 2862
2522 2936
2522 3118
2522 3607
2522 3685
2522 4295
2523 2665
2523 2877
2523 3324
2523 3651
2523 4140
2524 2712
2524 3490
2524 3650
2524 4146
2524 4296
2525 3390
2525 4071
2526 2693
2526 2770
2526 3075
2526 3466
2526 3734
2526 4909
2527 2627
2527 3149
2527 3235
2527 3372
2527 3563
2527 3585
2527 3772
2527 4416
2527 4787
2527 4864
2527 4989
2528 3767
2528 4014
2528 4205
2528 4357
2528 4441
2528 4463
2529 2612
2529 3281
2529 3373
2529 3444
2529 3517
2529 4209
2529 4708
2529 4712
2530 2802
2530 2874
2530 3807
2530 3920
2530 3975
2530 4678
2530 4683
2530 4721
2531 2584
2531 2953
2531 4047
2531 4428
2531 4465
2531 4826
2531 4860
2531 4883
2532 2611
2532 2965
2532 3469
2532 3475
2532 3752
2532 3761
2532 3813
2532 4318
2532 4507
2532 4768
2532 4794
2532 4921
2532 4989
2533 2915
2533 3146
2533 3206
2533 3642
2533 3785
2533 4435
2534 3075
2534 3729
2534 4252
2534 4388
2534 4536
2535 2599
2535 2728
2535 3310
2535 3453
2535 3454
2535 4070
2535 4766
2536 3238
2536 3374
2536 3377
2536 3560
2536 3898
2537 2644
2537 3117
2537 3172
2537 3641
2537 4030
2537 4108
2537 4589
2537 4658
2538 2747
2538 3173
2538 3185
2538 3274
2539 3095
2539 3110
2539 3783
2539 4913
2539 4983
2540 2601
2540 2822
2540 2877
2540 3140
2540 3299
2540 3574
2540 4140
2540 4513
2541 2731
2541 2897
2541 2940
2541 2995
2541 3390
2541 3424
2541 3619
2541 3632
2541 3687
2541 4738
2541 4784
2542 3235
2542 3547
2542 3873
2542 3976
2542 4228
2542 4289
2542 4811
2543 2676
2543 3264
2544 2589
2544 2757
2544 2775
2544 2852
2544 3130
2544 3229
2544 3289
2544 3307
2544 3362
2544 3363
2544 3541
2544 3627
2544 3707
2544 3814
2544 4049
2544 4072
2544 4290
2544 4302
2544 4325
2544 4546
2544 4593
2544 4608
2544 4743
2544 4881
2544 4966
2545 3528
2545 3788
2545 3808
2545 3918
2545 4675
2546 2558
2546 2989
2546 3255
2546 4108
2546 4159
2546 4331
2546 4655
2546 4804
2547 3404
2547 3607
2547 4037
2547 4279
2547 4626
2547 4868
2547 4963
2548 3606
2548 4530
2548 4567
2548 4706
2548 4799
2549 2687
2549 2695
2549 2763
2549 2907
2549 3303
2549 4101
2549 4901
2550 2605
2550 2609
2550 2612
2550 2774
2550 2938
2550 3127
2550 3465
2550 3588
2550 3860
2550 4676
2550 4702
2550 4819
2551 3085
2551 3188
2551 3494
2551 3586
2551 3591
2551 4502
2551 4573
2551 4637
2551 4776
2552 2725
2552 2782
2552 3113
2552 3458
2552 4920
2552 4956
2553 4004
2553 4070
2553 4602
2554 2604
2554 2638
2554 2966
2554 3559
2554 3884
2554 4191
2554 4851
2555 2615
2555 2666
2555 3485
2555 3554
2555 3852
2555 3859
2555 4065
2555 4359
2555 4764
2555 4977
2556 2684
2556 3360
2556 3530
2556 4439
2557 2559
2557 2628
2557 2708
2557 3045
2557 3162
2557 3977
2558 3042
2558 3575
2558 3839
2558 4164
2558 4917
2559 2628
2559 2639
2559 3496
2559 3516
2559 3606
2559 3998
2559 4264
2559 4396
2559 4615
2559 4667
2559 4731
2559 4733
2560 2818
2560 3095
2560 3119
2560 3931
2560 4159
2561 2649
2561 2655
2561 2883
2561 3262
2561 3897
2561 3946
2562 2942
2562 3090
2562 3251
2562 3547
2562 3827
2562 3849
2562 3934
2562 4024
2562 4214
2562 4845
2562 4996
2563 3312
2563 3502
2563 4418
2564 2598
2564 2977
2564 3126
2564 3424
2564 3664
2564 4600
2565 2627
2565 3548
2565 3971
2565 4269
2566 2764
2566 2902
2566 3710
2566 4259
2566 4404
2566 4486
2566 4542
2566 4625
2566 4993
2567 2660
2567 2976
2567 3452
2567 3651
2567 3674
2567 3917
2567 4442
2567 4498
2567 4679
2567 4698
2568 3892
2568 4635
2569 2584
2569 2688
2569 3206
2569 3668
2569 3849
2569 4065
2569 4316
2569 4975
2570 2969
2570 3626
2570 4006
2570 4191
2570 4209
2570 4353
2570 4374
2571 2590
2571 2880
2571 2948
2571 3246
2571 3797
2571 3910
2571 4023
2571 4038
2571 4060
2571 4078
2571 4622
2571 4730
2572 2809
2573 3199
2573 3607
2573 4551
2573 4874
2573 4878
2574 2946
2574 4466
2575 2975
2575 3135
2575 3658
2575 3667
2575 3738
2575 4350
2575 4729
2576 2947
2576 2990
2576 3044
2576 3191
2576 3390
2576 4071
2576 4494
2576 4717
2576 4811
2577 2898
2577 3464
2577 3478
2577 4016
2577 4250
2577 4413
2577 4981
2577 4989
2578 2652
2578 2718
2578 2899
2578 4127
2578 4475
2579 2691
2579 3023
2579 3059
2579 3243
2579 3322
2579 3508
2579 3546
2579 3549
2579 3662
2579 3903
2579 4312
2579 4384
2579 4734
2580 3091
2580 3202
2580 3629
2580 3795
2581 3005
2581 3368
2581 3897
2581 4129
2581 4666
2581 4725
2581 4801
2581 4988
2582 3350
2582 3483
2582 3628
2582 4220
2582 4546
2582 4785
2582 4938
2583 3087
2583 3155
2583 4861
2584 2633
2584 2642
2584 2717
2584 2896
2584 2923
2584 3007
2584 3608
2584 3814
2584 4006
2584 4166
2584 4256
2584 4389
2584 4548
2584 4730
2585 2832
2585 3146
2585 3945
2585 4129
2585 4529
2585 4624
2585 4807
2586 2898
2586 4247
2586 4370
2586 4634
2586 4722
2587 3439
2587 3539
2587 3561
2587 4166
2587 4389
2587 4445
2587 4462
2587 4573
2588 2796
2588 3380
2588 3728
2588 3928
2588 3992
2588 4231
2588 4263
2588 4627
2588 4657
2589 2935
2589 3637
2589 3812
2590 2894
2590 2902
2590 3130
2590 3227
2590 3374
2590 3416
2590 4450
2590 4842
2591 2911
2591 3086
2591 3355
2591 3441
2591 4703
2591 4808
2592 2645
2592 3072
2592 3334
2592 4294
2592 4439
2592 4620
2593 2798
2593 3077
2593 3663
2593 4622
2594 2930
2594 3829
2594 3956
2594 4046
2594 4224
2594 4502
2594 4871
2595 3124
2595 3389
2595 3542
2595 3683
2595 3736
2595 3815
2595 3926
2595 4587
2595 4734
2596 3018
2596 3485
2596 3734
2596 4060
2597 3473
2597 3717
2597 4723
2597 4972
2597 4973
2598 2836
2598 3664
2598 3857
2598 3914
2598 4183
2598 4505
2598 4968
2599 3310
2599 3403
2599 3711
2599 4070
2599 4666
2599 4961
2600 2610
2600 2640
2600 2680
2600 2714
2600 2719
2600 2978
2600 3868
2600 4129
2601 2866
2601 2950
2601 3182
2601 3557
2601 3782
2601 3929
2601 4087
2601 4260
2601 4422
2601 4684
2601 4741
2601 4835
2602 3834
2603 3882
2604 2833
2604 2947
2604 3120
2604 3632
2604 3649
2604 4518
2604 4623
2604 4632
2605 3160
2605 3161
2605 4052
2605 4336
2605 4517
2606 2962
2606 3125
2606 3135
2606 3229
2606 3275
2606 3335
2606 3565
2606 3890
2606 4317
2606 4465
2607 2623
2607 2897
2607 3143
2607 3191
2607 3240
2607 3254
2607 3489
2607 4103
2607 4814
2607 4923
2608 2635
2608 2767
2608 3074
2608 3593
2608 3595
2608 3693
2608 4064
2608 4134
2608 4354
2608 4923
2609 3024
2609 3063
2609 4538
2609 4570
2609 4646
2609 4702
2610 2680
2610 2719
2610 2934
2610 2978
2610 3061
2610 3085
2610 3553
2610 3690
2610 3868
2610 4083
2611 2965
2611 3083
2611 3115
2611 3390
2611 3752
2611 3819
2611 3896
2611 3938
2611 4183
2611 4318
2611 4450
2611 4794
2611 4870
2611 4921
2612 2711
2612 3040
2612 3114
2612 3264
2612 3384
2612 3723
2612 4104
2612 4332
2612 4680
2612 4791
2613 2934
2613 3542
2613 4171
2614 4047
2614 4930
2615 3101
2615 3608
2615 4314
2615 4352
2615 4721
2616 3097
2616 3328
2616 3722
2616 3822
2616 4137
2616 4265
2616 4429
2616 4761
2617 3068
2617 3139
2617 4056
2617 4076
2617 4596
2617 4699
2618 3928
2618 4249
2618 4444
2619 2851
2619 2951
2619 2994
2619 3020
2619 3124
2619 3286
2619 3371
2619 3490
2619 3551
2619 3704
2619 4594
2619 4796
2619 4829
2619 4936
2620 2635
2620 2660
2620 2956
2620 2999
2620 3026
2620 3040
2620 3762
2620 3791
2620 4418
2620 4652
2620 4955
2621 3110
2621 3528
2621 4026
2621 4687
2622 2712
2622 2743
2622 2931
2622 3592
2622 3668
2622 4735
2623 2673
2623 3204
2623 3240
2623 3885
2623 3886
2623 4103
2623 4745
2623 4845
2624 2683
2624 2740
2624 2920
2624 3473
2624 3717
2624 4026
2624 4092
2625 2889
2625 3054
2625 3464
2625 3477
2625 3860
2625 3862
2625 4045
2625 4125
2625 4567
2625 4965
2626 2780
2626 2912
2626 3446
2626 3546
2626 3661
2626 3735
2626 3830
2626 3922
2626 4027
2626 4058
2626 4067
2626 4106
2626 4146
2626 4312
2626 4606
2626 4740
2627 2727
2627 2823
2627 2847
2627 3005
2627 3218
2627 3581
2627 3927
2627 3944
2627 4129
2627 4302
2627 4559
2627 4758
2627 4988
2628 3018
2628 3160
2628 3548
2628 3552
2628 3849
2628 4264
2628 4620
2628 4710
2628 4731
2628 4758
2628 4947
2629 2935
2629 2951
2629 3943
2629 3955
2630 2679
2630 2708
2630 2892
2630 2927
2630 2936
2630 3291
2630 3339
2630 3401
2630 3523
2630 3612
2630 3615
2630 3727
2630 3821
2630 4007
2630 4283
2630 4321
2630 4326
2630 4724
2631 3360
2631 3394
2631 3438
2631 4195
2631 4618
2631 4926
2632 2938
2632 3236
2632 3298
2632 3751
2632 4012
2632 4188
2632 4563
2632 4940
2633 2970
2633 3418
2633 3580
2633 3631
2633 4043
2633 4069
2633 4321
2633 4848
2633 4918
2634 2656
2634 2763
2634 3097
2634 3116
2634 3128
2634 3293
2634 3491
2634 3639
2634 4899
2635 2654
2635 2935
2635 2993
2635 3037
2635 3178
2635 3356
2635 3393
2635 3928
2635 4197
2635 4781
2636 2951
2636 2962
2636 3560
2636 3701
2636 3742
2636 4429
2636 4607
2636 4655
2636 4849
2637 3280
2637 3372
2637 3743
2637 3844
2637 4044
2637 4100
2637 4223
2637 4414
2637 4890
2637 4897
2638 3166
2638 3181
2638 3656
2638 4737
2638 4846
2638 4984
2639 2962
2639 3489
2639 3596
2640 3021
2640 3284
2640 3355
2640 4241
2641 3053
2641 3903
2641 4165
2641 4586
2641 4644
2642 2747
2642 2823
2642 3103
2642 3131
2642 4116
2642 4295
2642 4303
2642 4871
2642 4965
2643 2712
2643 2951
2643 3028
2643 3217
2643 3995
2643 4016
2643 4516
2643 4570
2643 4589
2643 4599
2644 3117
2644 3172
2644 3250
2644 3641
2644 4108
2644 4571
2644 4589
2645 2772
2645 2841
2645 4027
2645 4092
2645 4308
2645 4405
2645 4795
2646 2661
2646 2692
2646 2899
2646 3191
2646 3222
2646 4293
2646 4612
2646 4697
2647 3165
2647 3425
2647 3588
2647 3673
2647 4376
2647 4463
2647 4593
2647 4982
2648 2728
2648 2992
2648 4023
2648 4124
2648 4406
2649 2837
2649 3183
2649 4704
2649 4772
2650 2981
2650 3175
2650 4847
2650 4912
2651 3896
2651 4036
2651 4083
2651 4128
2651 4240
2651 4502
2651 4746
2652 2899
2652 3404
2652 3664
2652 4254
2653 2796
2653 3244
2653 4122
2653 4150
2653 4580
2653 4610
2653 4876
2654 3030
2654 3562
2654 3751
2654 4427
2654 4958
2655 3262
2655 3946
2655 4696
2656 2763
2656 2862
2656 2891
2656 2965
2656 3293
2656 3491
2656 3764
2656 4352
2656 4423
2657 2946
2657 2954
2658 2919
2658 3371
2658 3376
2658 3408
2658 3456
2658 4178
2658 4753
2658 4797
2658 4898
2659 3180
2659 3437
2659 3519
2659 3601
2659 3721
2659 4281
2659 4308
2659 4388
2659 4434
2659 4472
2659 4573
2659 4652
2660 2706
2660 2879
2660 3245
2660 3713
2660 3893
2660 3993
2660 4490
2661 2868
2661 4399
2661 4737
2662 3259
2662 3683
2662 3802
2662 3883
2662 4431
2662 4470
2662 4605
2662 4798
2662 4846
2663 2871
2663 3510
2663 3604
2663 3641
2663 3678
2663 3761
2663 3966
2663 4169
2663 4243
2663 4347
2664 2787
2664 2974
2664 2984
2664 3025
2664 3713
2664 3730
2664 3815
2664 3873
2664 4142
2664 4459
2664 4709
2664 4776
2664 4859
2665 3324
2665 4136
2665 4424
2665 4547
2666 2780
2666 4462
2667 3179
2667 3471
2667 3618
2667 4833
2668 2670
2668 2671
2668 2751
2668 2937
2668 2994
2668 3570
2668 3749
2668 3889
2668 3968
2668 4114
2668 4435
2668 4825
2668 4992
2669 3283
2669 3386
2669 3711
2669 4364
2669 4555
2670 2937
2670 3347
2670 3560
2670 3570
2670 3727
2670 4561
2671 2957
2671 3076
2671 3173
2671 3727
2671 3813
2671 3968
2671 4060
2671 4478
2672 2767
2672 2841
2672 2852
2672 3020
2672 3052
2672 3263
2672 3370
2672 3508
2672 3657
2672 3891
2673 2682
2673 2916
2673 3068
2673 4085
2673 4086
2674 3014
2674 3167
2674 3255
2674 3862
2674 4097
2674 4446
2675 2679
2675 3294
2675 3579
2675 4409
2675 4839
2676 3264
2676 4467
2676 4511
2676 4790
2677 3061
2677 3148
2677 3150
2677 3835
2677 3858
2677 3935
2677 4074
2677 4339
2677 4341
2677 4380
2677 4639
2677 4827
2677 4922
2678 2817
2678 3396
2678 3856
2678 3952
2678 4017
2678 4055
2678 4461
2678 4897
2679 2690
2679 2958
2679 3046
2679 3269
2679 3452
2679 3697
2679 4311
2679 4477
2679 4615
2679 4974
2680 2719
2680 2978
2680 3061
2680 3334
2680 3718
2680 3868
2680 3894
2680 3980
2681 3763
2681 4190
2682 3237
2682 3710
2682 3748
2682 4049
2683 3036
2683 3144
2683 3310
2683 4031
2683 4640
2683 4814
2684 3231
2684 3496
2684 3841
2684 4171
2685 2720
2685 2946
2685 3068
2685 3419
2685 3512
2685 4044
2685 4078
2685 4765
2685 4955
2686 3034
2686 3274
2686 3533
2686 3821
2686 4002
2686 4116
2686 4657
2687 3437
2687 4278
2687 4947
2688 2704
2688 3080
2688 3177
2688 3564
2688 4262
2688 4394
2688 4658
2689 2767
2689 3192
2689 3236
2689 3335
2689 3412
2689 3908
2689 3940
2689 3964
2689 4747
2690 2946
2690 3038
2690 3535
2690 3918
2690 3978
2690 4346
2690 4587
2691 3020
2691 3320
2691 3451
2691 4100
2691 4527
2691 4552
2691 4635
2691 4672
2691 4777
2691 4801
2691 4901
2692 2966
2692 3131
2692 3265
2692 4164
2692 4187
2692 4884
2692 4943
2692 4984
2693 2753
2693 3798
2693 3818
2693 4520
2693 4752
2694 2889
2694 2911
2694 3336
2694 3788
2694 4329
2694 4448
2694 4869
2695 4101
2695 4308
2695 4424
2696 2745
2696 2816
2696 3493
2696 3661
2696 3869
2697 2739
2697 2846
2697 2873
2697 3173
2697 4579
2697 4678
2698 3250
2698 4094
2698 4541
2698 4553
2699 2966
2699 3982
2699 4585
2700 2892
2700 3192
2700 3495
2700 3621
2700 3966
2700 4441
2700 4484
2701 3176
2701 3205
2701 3308
2701 3835
2701 4102
2701 4222
2701 4321
2702 3248
2702 3393
2702 3502
2702 3660
2702 4120
2702 4132
2702 4155
2702 4235
2702 4574
2703 3771
2703 3984
2703 4230
2703 4489
2703 4629
2704 3177
2704 3564
2705 3452
2705 4123
2705 4216
2705 4646
2706 2877
2706 2879
2706 3106
2706 3179
2706 3275
2706 3477
2706 3536
2706 3713
2706 3893
2706 3993
2706 4138
2706 4150
2706 4436
2706 4470
2706 4712
2707 2768
2707 2916
2707 2962
2707 2985
2707 3944
2708 3205
2708 3699
2708 3751
2708 4958
2709 2792
2709 3080
2709 3153
2709 3201
2709 3295
2709 4138
2709 4467
2709 4537
2709 4675
2710 2925
2710 3451
2710 4135
2711 3078
2711 3096
2711 3143
2711 3177
2711 3247
2711 3468
2711 3470
2711 3759
2711 4140
2711 4426
2711 4693
2712 2736
2712 3028
2712 3217
2712 3277
2712 3432
2712 3624
2712 3800
2712 3992
2712 3995
2712 4074
2712 4315
2712 4328
2712 4516
2712 4570
2712 4599
2713 3626
2713 4151
2713 4225
2713 4725
2713 4765
2714 2728
2714 2817
2714 2929
2714 3171
2714 3249
2714 3337
2714 3510
2714 3631
2714 3687
2714 3988
2714 4195
2714 4717
2714 4924
2715 2814
2715 3296
2715 3719
2715 3727
2715 3840
2715 3843
2715 3920
2715 4053
2715 4382
2715 4813
2715 4938
2716 2754
2716 2975
2716 3414
2716 4134
2716 4634
2716 4973
2717 4389
2717 4548
2717 4649
2718 3064
2718 3084
2718 3171
2718 3715
2718 4164
2718 4266
2718 4410
2718 4490
2719 2978
2719 3690
2719 3868
2719 4315
2719 4413
2720 3008
2720 3574
2720 3861
2720 4115
2720 4404
2720 4917
2720 4972
2721 2764
2721 3212
2721 3246
2721 3268
2721 4081
2721 4520
2722 2965
2722 3083
2722 3420
2722 3472
2722 3522
2722 3543
2722 3639
2722 3652
2722 4112
2722 4460
2722 4866
2723 2955
2723 3641
2723 3902
2723 4187
2723 4272
2723 4445
2724 2756
2724 2794
2724 2811
2724 2921
2724 3221
2724 3392
2724 3529
2724 4650
2724 4792
2724 4865
2724 4889
2724 4903
2724 4965
2725 2790
2725 4130
2725 4418
2725 4690
2726 2793
2726 3701
2726 3758
2726 4157
2726 4513
2726 4683
2726 4932
2727 2780
2727 2925
2727 3152
2727 3399
2727 3488
2727 3541
2727 3972
2727 4026
2727 4098
2727 4722
2728 2830
2728 2885
2728 2905
2728 3051
2728 3516
2728 3693
2728 3711
2728 3747
2728 3758
2728 4093
2728 4132
2728 4311
2728 4349
2728 4805
2728 4868
2728 4949
2729 2757
2729 2889
2729 2900
2729 3254
2729 3437
2729 3731
2729 3797
2729 3879
2730 2791
2730 2796
2730 2885
2730 3228
2730 3244
2730 4150
2731 2940
2731 3964
2731 4185
2731 4424
2732 2917
2732 3091
2732 3102
2732 3174
2732 3408
2732 3449
2732 3478
2732 4126
2732 4519
2732 4588
2733 2767
2733 2798
2733 3516
2733 3857
2733 4179
2733 4961
2734 2812
2734 2864
2734 2988
2734 3005
2734 4590
2734 4798
2735 2970
2735 4120
2735 4340
2735 4410
2736 2875
2736 2960
2736 3236
2736 3619
2736 3709
2736 4191
2736 4760
2736 4861
2737 2804
2737 2853
2737 4263
2737 4351
2738 2841
2738 2983
2738 3314
2738 3477
2738 3704
2738 3838
2738 4317
2739 2863
2739 3329
2739 3527
2739 3618
2739 3954
2739 4074
2739 4150
2739 4418
2739 4850
2740 2742
2740 4525
2741 3028
2741 3390
2741 3733
2741 3879
2741 4006
2741 4412
2742 3274
2742 4046
2742 4333
2743 2993
2743 3001
2743 3919
2743 4070
2743 4544
2743 4763
2743 4949
2744 3260
2744 3537
2744 3564
2744 3741
2744 3777
2744 3813
2744 4382
2744 4424
2744 4852
2745 3564
2745 3616
2745 3773
2745 3788
2745 3948
2745 4058
2745 4091
2745 4211
2745 4242
2745 4268
2745 4398
2745 4628
2745 4833
2745 4959
2745 4981
2746 2975
2746 3056
2746 3713
2746 3884
2746 4162
2746 4329
2746 4348
2746 4668
2747 3582
2747 3637
2747 4595
2747 4963
2748 2888
2748 2966
2748 3030
2748 3443
2748 3594
2749 2841
2749 3114
2749 4004
2749 4006
2749 4738
2749 4757
2749 4952
2750 2994
2750 3145
2750 3748
2750 3952
2750 4021
2750 4800
2751 3418
2751 3570
2751 3727
2751 4086
2751 4694
2751 4890
2752 2761
2752 2961
2752 3008
2752 3114
2752 3408
2752 3794
2752 4119
2752 4811
2753 3147
2753 3161
2753 3488
2753 3758
2753 3818
2753 3841
2753 4089
2753 4567
2753 4724
2753 4909
2753 4957
2754 2909
2754 3197
2754 3395
2754 3484
2754 3647
2754 3664
2754 3695
2754 3711
2754 3863
2754 4046
2754 4331
2754 4701
2754 4715
2754 4768
2754 4999
2755 2887
2755 3451
2755 3931
2755 4447
2755 4522
2756 2811
2756 4137
2756 4361
2756 4695
2756 4867
2756 4889
2757 3130
2757 3307
2757 3362
2757 3363
2757 3529
2757 3541
2757 4966
2758 2977
2758 3038
2758 3119
2758 3240
2758 3440
2758 3486
2758 3853
2758 4533
2758 4899
2759 3724
2759 4826
2760 2771
2760 3304
2760 3316
2760 3556
2760 4127
2760 4798
2760 4908
2760 4991
2761 2781
2761 3794
2761 3972
2761 4119
2761 4279
2761 4558
2761 4566
2761 4811
2762 2877
2762 3743
2762 4010
2762 4579
2763 3208
2763 3293
2763 3491
2763 3770
2763 3916
2764 3168
2764 3556
2764 3635
2764 3771
2764 3775
2764 3850
2764 4259
2764 4486
2764 4542
2764 4712
2764 4729
2764 4993
2764 4997
2765 3133
2765 3447
2765 3783
2765 4274
2765 4335
2765 4363
2765 4509
2765 4774
2766 2779
2766 3680
2766 4374
2766 4603
2766 4966
2767 2914
2767 3074
2767 3136
2767 3159
2767 3584
2767 3595
2767 3714
2767 4007
2767 4064
2767 4846
2768 2888
2768 2993
2768 3129
2768 3146
2768 3578
2768 3887
2768 3924
2768 3944
2768 4135
2768 4201
2768 4209
2768 4403
2768 4422
2768 4763
2769 3545
2769 4206
2769 4913
2769 4983
2769 4984
2770 3570
2770 3734
2770 4017
2770 4060
2770 4282
2770 4595
2771 2846
2771 2994
2771 3157
2771 3562
2771 3942
2771 4475
2771 4714
2772 3000
2772 3050
2772 3533
2772 3605
2772 3649
2772 3937
2772 3974
2772 3977
2772 4029
2772 4219
2772 4554
2772 4838
2773 3392
2773 3605
2773 3735
2773 3832
2773 4376
2773 4645
2773 4650
2773 4727
2774 4583
2774 4702
2774 4839
2774 4933
2775 2804
2775 3307
2775 3513
2775 3797
2775 4381
2775 4447
2776 3310
2776 3529
2776 3968
2776 4013
2776 4368
2776 4527
2776 4531
2777 2822
2777 2996
2777 3299
2777 3619
2777 3661
2777 3687
2777 3888
2777 4981
2778 2872
2778 3073
2778 3191
2778 3975
2778 4153
2778 4376
2778 4677
2778 4904
2779 4374
2780 2842
2780 2871
2780 2930
2780 3324
2780 3963
2780 4314
2780 4670
2780 4729
2781 3139
2781 3587
2781 3750
2781 3794
2781 4119
2781 4422
2781 4811
2782 3113
2782 3978
2782 4028
2782 4956
2783 2883
2783 3166
2783 3379
2783 4249
2783 4471
2784 2850
2784 2870
2784 2998
2784 3111
2784 3616
2784 3834
2784 4167
2784 4280
2784 4551
2784 4830
2785 2992
2785 3124
2785 3281
2785 3432
2785 4298
2785 4379
2785 4996
2786 3062
2786 3119
2786 3353
2786 3775
2786 4031
2786 4096
2786 4145
2786 4165
2786 4541
2786 4695
2787 3038
2787 3041
2787 3364
2787 3541
2787 3765
2787 4142
2787 4776
2788 3035
2788 4273
2788 4499
2788 4986
2789 3038
2789 3247
2789 3293
2789 3570
2789 3642
2789 3918
2789 3957
2789 3978
2789 4570
2790 3117
2790 3242
2790 3579
2790 4235
2790 4473
2790 4947
2791 3531
2791 3566
2791 3721
2791 4153
2791 4429
2791 4488
2791 4902
2792 3000
2792 3203
2792 3717
2792 4431
2792 4490
2792 4605
2792 4846
2793 3000
2793 3192
2793 3404
2793 3995
2793 4600
2794 3492
2794 4511
2795 3147
2795 4597
2795 4747
2796 3180
2796 3244
2796 3265
2796 4150
2796 4445
2797 2888
2797 2979
2797 3136
2797 4644
2797 4827
2798 2888
2798 2957
2798 3091
2798 3146
2798 3407
2798 3453
2798 3460
2798 3559
2798 4040
2798 4553
2798 4560
2798 4680
2798 4771
2798 4905
2798 4912
2799 3646
2799 3932
2799 3963
2799 4182
2799 4563
2800 3055
2800 3317
2800 3322
2800 3481
2800 3584
2800 4114
2800 4338
2800 4488
2800 4782
2801 3534
2801 4221
2801 4235
2801 4500
2801 4859
2802 3975
2802 4309
2802 4678
2803 3776
2803 3792
2803 4646
2803 4703
2804 3148
2804 3237
2804 3524
2804 3963
2804 4165
2804 4381
2804 4534
2804 4584
2805 2807
2805 2819
2805 2858
2805 3276
2805 4141
2805 4589
2805 4661
2805 4821
2806 3084
2806 3738
2806 4206
2806 4854
2807 2819
2807 3660
2807 4565
2808 3029
2808 3658
2808 3972
2808 3987
2808 4016
2808 4320
2808 4749
2808 4811
2808 4913
2809 3676
2809 4177
2809 4576
2810 2892
2810 3289
2810 3784
2810 4146
2811 3150
2811 3221
2811 3392
2811 4317
2811 4469
2812 2888
2812 2979
2812 3559
2812 4376
2813 3348
2813 3996
2813 4083
2813 4499
2814 2823
2814 3719
2814 3843
2814 4199
2814 4382
2814 4717
2814 4813
2815 3223
2815 3793
2815 4108
2816 2880
2816 2974
2816 2991
2816 3271
2816 3561
2816 3622
2816 3624
2816 3869
2816 4057
2816 4527
2816 4690
2817 3304
2817 3456
2817 3656
2817 3952
2817 4055
2817 4312
2817 4461
2818 3049
2818 3509
2818 4039
2818 4118
2818 4437
2818 4832
2819 3068
2819 3985
2820 3024
2820 3249
2820 3639
2820 3790
2820 4181
2820 4256
2820 4272
2820 4749
2820 4857
2821 3239
2821 3688
2821 3748
2821 4177
2821 4813
2821 4831
2822 3687
2822 3859
2822 3923
2822 4824
2823 3103
2823 4202
2823 4295
2823 4826
2823 4965
2823 4966
2824 3405
2824 3465
2824 3674
2824 4043
2824 4296
2825 2862
2825 3217
2825 4489
2825 4702
2825 4770
2826 2841
2826 2961
2826 3038
2826 3266
2826 3418
2826 3801
2826 3901
2826 4194
2826 4491
2826 4573
2826 4608
2826 4710
2826 4741
2827 2838
2827 2929
2827 3083
2827 3179
2827 3214
2827 3294
2827 3489
2827 3541
2827 3610
2827 4227
2827 4229
2827 4415
2827 4580
2827 4637
2827 4886
2827 4958
2828 3851
2828 3983
2828 4909
2829 3072
2829 3594
2829 3831
2829 3850
2829 4550
2829 4608
2829 4777
2829 4793
2830 3353
2830 4799
2831 4177
2831 4325
2831 4596
2832 2990
2832 3588
2832 3861
2832 3907
2832 4581
2832 4958
2833 4623
2833 4632
2833 4871
2834 3109
2834 3477
2834 4771
2834 4789
2834 4837
2835 3008
2835 3512
2835 3608
2835 3682
2835 3696
2835 4039
2835 4825
2836 2980
2836 3001
2836 3091
2836 3442
2836 3742
2836 4607
2836 4849
2837 3204
2837 3437
2837 3489
2837 3705
2837 4002
2837 4138
2837 4293
2837 4745
2838 2906
2838 3169
2838 3334
2838 3475
2838 3556
2838 3563
2838 3608
2838 3627
2838 3895
2838 4459
2838 4781
2838 4802
2839 3173
2839 3381
2839 3592
2839 3597
2839 3931
2840 2991
2840 3088
2840 3725
2840 3936
2840 4177
2840 4325
2841 2852
2841 3261
2841 3508
2841 3657
2841 3891
2841 4278
2841 4342
2841 4600
2841 4743
2842 3077
2842 3105
2842 3342
2842 3358
2842 3556
2842 4014
2842 4467
2843 3002
2843 3196
2843 3351
2843 3374
2843 3462
2843 3777
2843 4613
2844 3462
2844 3593
2844 3609
2844 4082
2845 3287
2845 3388
2845 3806
2845 3895
2845 4070
2845 4641
2846 2965
2846 2981
2846 3151
2846 4688
2846 4714
2846 4775
2847 3005
2847 3218
2847 3878
2847 4020
2847 4129
2847 4680
2847 4751
2847 4988
2848 3560
2848 3801
2848 3861
2848 3922
2848 3925
2848 3947
2848 4022
2848 4061
2848 4198
2848 4297
2848 4534
2849 3392
2849 4066
2849 4157
2850 3792
2850 4371
2850 4920
2851 3020
2851 3267
2851 3306
2851 3704
2851 3738
2851 4015
2851 4162
2851 4187
2852 3215
2852 3491
2852 3508
2852 3661
2852 4688
2852 4743
2853 3328
2853 3358
2853 3749
2853 3992
2853 4263
2853 4351
2853 4405
2854 3222
2854 4293
2854 4612
2854 4795
2855 3021
2855 3585
2855 3778
2855 4544
2855 4707
2856 3219
2856 3304
2856 3349
2856 3674
2856 3795
2856 4120
2856 4312
2856 4382
2856 4395
2856 4396
2856 4545
2856 4613
2857 3228
2857 4262
2857 4358
2857 4618
2858 3276
2858 3401
2858 4201
2858 4603
2859 2956
2859 3785
2859 4134
2859 4533
2860 2953
2860 2986
2860 3611
2860 3656
2860 4567
2861 3052
2861 3444
2861 3657
2861 3775
2861 3786
2861 3982
2861 4421
2861 4569
2861 4701
2862 2865
2862 3092
2862 3607
2862 3735
2862 4779
2863 2911
2863 3329
2863 3618
2863 3712
2863 4074
2863 4440
2864 3240
2864 3256
2864 4202
2865 3428
2865 3472
2865 3540
2865 3586
2865 4018
2865 4863
2866 3887
2867 3097
2867 3270
2867 3300
2867 3512
2867 3606
2867 4171
2867 4324
2867 4560
2867 4616
2867 4676
2867 4940
2868 2933
2868 3099
2868 4399
2868 4474
2868 4737
2869 4193
2869 4444
2869 4500
2869 4584
2869 4630
2869 4974
2870 3119
2870 3297
2870 3834
2870 4057
2870 4166
2870 4167
2870 4305
2870 4551
2870 4659
2870 4830
2871 3009
2871 3604
2871 3630
2871 3678
2871 3761
2871 3899
2871 4000
2871 4169
2871 4243
2871 4837
2872 3004
2872 3059
2872 3160
2872 3394
2872 3409
2872 3478
2872 3701
2872 3875
2872 4176
2872 4202
2872 4355
2872 4380
2872 4518
2872 4744
2872 4824
2872 4907
2873 3450
2873 3467
2873 3504
2873 3555
2873 3594
2873 3868
2873 4565
2873 4656
2873 4817
2874 3075
2874 3764
2874 4045
2874 4244
2874 4386
2874 4932
2875 2883
2875 3199
2875 3317
2875 3462
2875 4464
2875 4591
2875 4635
2875 4666
2875 4834
2875 4843
2876 2918
2876 3287
2876 3495
2877 3299
2877 3306
2877 3429
2877 3447
2877 3665
2877 3683
2877 4010
2877 4136
2877 4140
2877 4503
2877 4612
2878 3026
2878 3378
2878 3711
2878 4549
2878 4575
2878 4586
2878 4716
2879 3088
2879 3361
2879 3414
2879 3713
2879 4429
2879 4500
2880 3661
2880 3793
2880 3797
2880 3857
2880 3910
2880 3942
2880 4861
2881 2954
2881 4398
2881 4669
2881 4720
2881 4777
2881 4838
2882 2915
2882 2951
2882 3358
2882 3774
2882 3894
2882 4812
2882 4950
2883 2884
2883 2939
2883 3199
2883 3399
2883 3608
2883 3610
2883 4145
2883 4210
2883 4396
2883 4442
2883 4591
2883 4666
2884 3200
2884 3273
2884 3333
2884 3413
2884 4076
2884 4303
2885 2905
2885 4132
2885 4248
2885 4949
2886 2957
2886 3014
2886 3044
2886 3831
2886 3866
2886 4035
2886 4072
2886 4124
2886 4501
2886 4536
2886 4827
2887 2992
2887 3066
2887 3271
2887 3451
2887 3680
2887 3684
2887 4655
2888 2979
2888 3136
2888 3240
2888 3931
2888 4068
2888 4737
2888 4913
2889 2972
2889 3054
2889 3157
2889 3229
2889 3431
2889 3464
2889 3569
2889 3708
2889 3762
2889 4125
2889 4569
2890 2988
2890 3695
2890 4079
2890 4419
2890 4628
2890 4930
2890 4985
2891 3067
2891 3448
2891 3876
2891 4934
2892 3192
2892 3291
2892 3495
2892 3621
2892 4427
2892 4589
2892 4627
2892 4631
2893 3450
2893 3623
2893 3982
2893 4083
2893 4891
2894 2902
2894 3117
2894 3227
2894 3276
2894 3738
2894 3860
2894 3966
2894 3986
2894 4011
2894 4235
2894 4450
2894 4842
2894 4970
2895 3176
2895 3190
2895 3208
2895 3500
2895 3551
2895 3996
2895 4022
2895 4155
2895 4276
2895 4405
2895 4482
2895 4786
2895 4945
2895 4960
2896 3479
2896 3531
2896 4252
2896 4548
2897 3134
2897 3632
2897 3684
2897 3746
2897 3901
2897 3947
2897 4107
2897 4481
2897 4738
2897 4784
2898 3129
2898 3466
2898 4343
2898 4722
2899 3084
2899 3233
2899 3239
2899 3377
2899 3709
2899 3924
2899 3981
2899 4143
2899 4475
2900 3219
2900 3314
2900 3437
2900 3541
2900 3705
2900 4316
2900 4610
2900 4745
2901 2915
2901 3060
2901 4032
2901 4098
2901 4203
2901 4845
2902 3227
2902 3236
2902 3918
2902 4416
2902 4450
2902 4622
2902 4842
2903 2918
2903 2923
2903 3631
2903 4372
2903 4835
2903 4873
2904 3645
2904 3719
2904 3744
2904 4102
2904 4471
2904 4668
2904 4674
2905 3693
2905 4132
2905 4349
2905 4360
2905 4913
2905 4949
2906 3241
2906 3299
2906 3425
2906 3473
2906 3793
2906 3794
2906 3861
2906 4246
2906 4293
2906 4713
2907 3644
2907 4765
2907 4819
2908 2999
2908 3161
2908 3337
2908 3375
2908 3524
2908 3540
2908 3574
2908 3733
2908 4443
2908 4615
2908 4698
2908 4778
2908 4862
2909 2946
2909 3745
2909 4188
2909 4520
2909 4592
2909 4668
2909 4938
2910 3151
2910 3466
2910 3474
2910 3525
2910 3686
2910 3722
2910 3735
2910 4173
2910 4374
2910 4522
2911 3535
2911 3609
2911 3729
2911 3943
2911 4392
2911 4492
2911 4858
2912 3109
2912 3148
2912 3525
2912 4187
2912 4491
2913 3006
2913 3210
2913 3493
2913 3652
2913 3691
2913 4370
2913 4796
2914 3213
2914 3354
2914 3429
2914 3515
2914 3876
2914 4086
2914 4189
2914 4473
2915 3299
2915 3610
2915 3651
2915 3785
2915 4141
2915 4173
2915 4344
2915 4355
2915 4411
2915 4412
2915 4428
2915 4435
2915 4490
2915 4503
2915 4747
2916 2941
2916 2962
2916 2980
2916 3068
2916 3187
2916 3687
2916 3689
2916 3726
2916 3883
2916 3935
2916 4086
2916 4133
2916 4163
2916 4188
2916 4293
2916 4406
2916 4659
2916 4725
2916 4761
2917 4014
2917 4706
2917 4896
2917 4932
2918 3287
2918 3291
2918 4270
2919 3064
2919 4178
2919 4517
2919 4753
2919 4805
2920 3135
2920 3292
2920 3473
2920 3559
2920 3834
2920 4416
2920 4768
2920 4972
2921 2948
2921 3215
2921 4246
2921 4375
2922 2970
2922 3520
2922 3731
2922 4061
2922 4258
2922 4976
2923 3726
2923 3922
2923 4762
2923 4873
2924 3077
2924 3155
2924 3970
2924 4009
2924 4324
2924 4713
2925 2929
2925 3169
2925 3504
2925 4180
2925 4186
2925 4305
2925 4393
2925 4631
2925 4667
2925 4773
2925 4795
2926 3211
2926 3492
2926 3628
2926 4039
2926 4425
2926 4511
2927 3098
2927 3523
2927 4321
2927 4470
2928 3265
2928 3751
2928 4020
2928 4028
2928 4906
2928 4980
2929 2992
2929 3039
2929 3205
2929 3515
2929 3728
2929 3741
2929 3813
2929 4186
2929 4393
2929 4425
2929 4631
2929 4773
2929 4795
2930 2965
2930 4417
2931 2971
2931 3088
2931 4088
2932 3237
2932 3831
2932 3864
2932 3957
2932 4330
2933 3004
2933 3224
2933 3602
2933 3847
2934 3012
2934 3027
2934 3262
2934 3520
2934 3542
2934 3633
2934 4119
2934 4142
2934 4229
2934 4373
2934 4391
2934 4523
2934 4636
2934 4735
2934 4786
2935 3099
2935 3410
2935 3606
2935 3725
2935 4356
2935 4634
2935 4931
2936 3331
2936 3370
2936 3441
2936 3554
2936 3556
2936 3900
2936 3930
2936 4153
2936 4189
2936 4317
2936 4883
2937 3092
2937 3190
2937 3208
2937 3379
2937 3432
2937 3570
2937 3643
2937 3749
2937 3858
2937 3968
2937 3990
2937 4063
2937 4561
2937 4707
2937 4731
2937 4816
2938 3018
2938 3229
2938 3263
2938 3296
2938 3354
2938 3458
2938 3565
2938 3708
2938 3874
2938 4177
2938 4193
2938 4495
2938 4659
2938 4758
2939 3076
2939 3511
2939 3839
2940 3149
2940 3208
2940 3949
2940 3964
2940 4288
2940 4335
2940 4385
2940 4424
2940 4791
2940 4947
2940 4958
2941 3192
2941 3453
2941 4513
2942 3536
2942 3548
2942 4397
2942 4496
2942 4566
2942 4587
2942 4928
2943 3033
2943 3147
2943 3496
2943 4319
2943 4938
2944 3594
2944 3911
2944 4032
2944 4098
2944 4279
2944 4820
2944 4845
2945 3206
2945 4114
2945 4563
2946 3007
2946 3051
2946 3609
2946 3692
2946 3730
2946 4092
2946 4466
2946 4543
2946 4846
2947 2997
2947 3074
2947 3804
2947 4479
2947 4493
2948 2963
2948 3120
2948 3196
2948 3573
2948 3796
2948 4156
2948 4246
2948 4267
2948 4663
2948 4710
2948 4736
2948 4750
2949 3092
2949 3496
2949 3764
2949 3896
2949 4068
2949 4244
2949 4551
2949 4867
2950 3631
2950 4020
2950 4277
2950 4323
2950 4915
2950 4930
2951 3150
2951 3160
2951 3415
2951 3417
2951 3447
2951 3717
2951 4164
2951 4307
2951 4332
2951 4515
2951 4550
2951 4557
2951 4941
2952 2968
2952 3435
2952 4196
2952 4313
2952 4526
2952 4904
2952 4924
2953 2965
2953 3112
2953 3291
2953 3544
2953 3657
2953 3730
2953 4607
2953 4614
2953 4748
2953 4878
2954 3517
2954 3999
2954 4436
2954 4780
2954 4825
2954 4826
2954 4860
2955 2976
2955 3583
2956 3738
2956 4057
2956 4247
2956 4302
2956 4309
2956 4357
2957 3283
2957 3477
2957 3831
2957 4035
2957 4536
2958 3046
2958 4998
2959 3043
2959 3361
2959 3603
2959 4197
2959 4454
2959 4818
2960 3236
2960 3470
2960 3619
2960 4191
2960 4760
2960 4801
2960 4861
2960 4936
2961 3013
2961 3093
2961 3811
2961 4170
2961 4469
2961 4890
2962 3012
2962 3648
2962 3663
2962 3683
2962 3724
2962 3751
2962 4086
2962 4120
2962 4677
2962 4728
2963 3162
2963 3169
2963 3380
2963 3515
2963 3758
2963 3881
2963 3920
2963 3932
2963 3975
2963 3976
2963 4360
2963 4370
2963 4477
2963 4556
2963 4611
2963 4970
2964 3609
2964 4157
2964 4235
2965 3152
2965 3154
2965 3393
2965 3496
2965 3752
2965 4175
2965 4242
2965 4308
2965 4318
2965 4435
2965 4507
2965 4574
2965 4794
2965 4921
2966 3052
2966 3165
2966 3265
2966 3508
2966 3958
2966 4287
2966 4813
2966 4884
2966 4943
2966 4951
2966 4984
2967 3766
2967 4328
2967 4765
2968 3448
2968 3484
2968 3718
2968 4626
2968 4801
2968 4904
2969 3205
2969 3209
2969 3430
2969 3610
2969 3626
2969 3940
2969 4151
2969 4242
2969 4353
2969 4378
2969 4780
2969 4961
2970 3072
2970 3388
2970 3411
2970 3474
2970 3625
2970 3731
2970 4070
2970 4232
2970 4258
2970 4413
2970 4638
2970 4677
2970 4703
2970 4900
2970 4976
2971 3088
2971 3701
2971 4088
2971 4772
2972 3360
2972 3847
2972 4202
2972 4917
2973 3096
2973 3123
2973 3185
2973 3251
2973 3328
2973 3978
2973 4276
2973 4308
2973 4488
2973 4942
2973 4943
2974 3081
2974 3304
2974 3748
2974 4222
2974 4380
2974 4410
2974 4991
2975 4065
2975 4350
2975 4843
2975 4881
2976 4442
2976 4679
2977 2989
2977 3003
2977 3073
2977 3211
2977 3297
2977 3732
2977 3812
2977 3836
2977 3854
2977 3892
2977 4043
2977 4164
2977 4363
2977 4888
2977 4966
2977 4967
2979 3136
2979 3191
2979 3336
2979 3591
2979 3785
2979 4269
2979 4307
2979 4745
2980 3010
2980 3525
2980 3759
2980 4086
2981 2994
2981 4144
2981 4233
2981 4601
2981 4800
2981 4886
2982 3295
2982 3525
2982 4078
2982 4407
2982 4411
2982 4848
2982 4853
2983 3268
2983 3540
2983 3560
2983 3834
2983 4495
2983 4704
2984 3275
2984 3866
2984 4450
2984 4598
2984 4932
2985 3366
2985 3661
2985 3767
2985 3947
2985 4994
2986 3200
2986 3988
2986 4098
2986 4338
2986 4357
2986 4637
2986 4798
2986 4851
2987 3101
2987 3530
2987 3534
2987 4918
2988 4902
2989 3169
2990 3588
2990 3673
2990 3797
2990 3907
2990 4321
2990 4556
2991 3017
2991 3256
2991 4177
2992 3125
2992 3240
2992 3281
2992 3765
2992 4959
2993 3457
2993 3470
2993 3522
2993 3675
2993 3855
2993 4019
2993 4290
2993 4436
2993 4446
2993 4823
2993 4909
2993 4910
2994 3137
2994 3159
2994 4103
2994 4601
2994 4800
2994 4936
2995 4026
2995 4170
2995 4204
2995 4412
2995 4593
2995 4768
2995 4775
2996 3687
2997 3232
2997 3655
2997 3804
2997 3873
2997 4415
2997 4559
2997 4845
2998 3184
2998 3349
2998 3634
2998 4023
2998 4406
2999 3161
2999 3983
2999 4615
2999 4654
2999 4698
2999 4862
3000 3630
3000 3648
3000 3691
3000 3958
3000 4051
3000 4164
3000 4372
3000 4607
3000 4742
3000 4755
3001 3317
3001 3915
3001 3919
3001 4763
3002 3351
3002 3579
3002 4167
3002 4577
3002 4949
3003 3206
3003 3233
3003 4041
3003 4455
3004 3235
3004 3829
3005 3031
3005 3218
3005 3762
3005 4129
3005 4253
3005 4325
3005 4752
3005 4988
3006 3021
3006 3619
3006 4312
3006 4410
3006 4537
3007 4466
3008 3377
3008 3574
3008 3928
3008 3931
3008 4115
3008 4155
3008 4380
3008 4996
3009 3604
3009 4243
3010 3148
3010 4356
3010 4383
3010 4945
3011 3648
3011 4179
3011 4814
3012 3394
3012 3683
3012 3724
3012 4041
3012 4156
3013 3803
3013 4303
3014 3400
3014 3862
3014 4097
3014 4473
3014 4508
3014 4607
3014 4666
3014 4679
3014 4932
3015 3097
3015 3596
3015 3851
3015 4107
3015 4387
3015 4524
3016 4271
3016 4913
3017 3733
3017 4215
3017 4285
3017 4412
3017 4717
3017 4922
3018 3708
3018 3874
3018 4193
3018 4892
3019 3534
3019 3958
3019 4312
3019 4950
3020 3036
3020 3213
3020 3225
3020 3371
3020 3463
3020 3704
3020 4068
3020 4096
3020 4594
3021 3293
3021 4217
3021 4241
3021 4590
3022 3109
3022 3342
3022 3578
3022 3810
3022 3941
3022 4233
3022 4336
3022 4720
3022 4779
3022 4848
3022 4905
3023 3243
3023 3660
3023 3662
3023 3908
3023 4146
3023 4384
3023 4884
3024 3709
3024 4181
3025 3722
3025 3730
3025 4142
3025 4191
3025 4238
3025 4291
3025 4451
3025 4776
3026 4716
3026 4890
3027 3323
3027 3496
3027 3542
3027 3633
3027 4315
3027 4373
3027 4523
3027 4698
3027 4786
3028 3097
3028 3277
3028 3359
3028 3995
3028 4516
3028 4570
3028 4599
3029 3806
3029 3863
3029 3972
3029 4044
3029 4085
3029 4240
3029 4320
3029 4749
3029 4771
3030 3739
3030 3766
3031 3330
3031 3373
3031 3898
3031 4050
3031 4487
3032 3102
3032 3370
3032 4062
3032 4271
3033 3166
3033 3252
3033 4249
3034 3439
3034 3726
3034 3729
3034 3762
3034 3799
3034 3803
3034 4731
3034 4993
3035 3436
3035 3475
3035 4200
3035 4614
3035 4704
3035 4813
3035 4986
3036 3457
3036 4170
3036 4572
3036 4693
3037 3209
3037 3291
3037 3584
3037 3919
3037 4815
3038 3186
3038 3215
3038 3382
3038 3978
3038 4346
3038 4813
3038 4842
3039 3134
3040 3318
3040 3324
3040 3513
3040 4046
3040 4104
3040 4332
3040 4480
3040 4680
3040 4762
3040 4791
3040 4998
3041 3098
3041 3661
3041 3912
3041 4300
3041 4834
3042 3304
3042 3839
3042 4124
3042 4502
3043 3645
3043 4174
3044 3351
3044 3390
3044 3980
3045 3873
3045 4459
3045 4538
3047 3225
3047 3244
3047 3390
3047 3439
3047 3468
3047 4049
3047 4283
3047 4638
3047 4902
3048 3050
3048 3619
3048 3630
3048 3650
3048 4235
3048 4859
3049 3336
3049 3573
3049 3923
3049 4118
3049 4437
3049 4832
3050 3649
3050 4029
3051 3602
3051 3780
3051 4238
3051 4809
3051 4972
3052 3446
3052 3775
3053 3231
3053 4165
3053 4225
3053 4383
3053 4586
3054 3464
3054 3486
3054 3762
3054 4069
3054 4125
3054 4749
3054 4781
3054 4818
3055 3317
3055 3322
3055 3584
3055 3758
3055 3979
3055 4041
3055 4114
3055 4428
3055 4477
3055 4673
3055 4782
3055 4877
3056 3608
3056 3735
3056 3859
3056 4128
3057 3128
3057 3358
3057 3894
3057 4409
3057 4476
3058 3119
3058 3466
3058 3889
3058 4540
3058 4707
3058 4902
3059 3286
3059 3432
3059 4045
3059 4630
3060 3308
3060 3729
3060 4087
3061 3119
3061 4217
3061 4618
3061 4837
3062 3146
3062 3252
3062 4580
3062 4804
3063 3470
3063 3543
3063 3644
3063 3827
3063 4434
3063 4495
3063 4858
3064 3384
3064 3404
3064 3500
3064 4213
3064 4548
3064 4790
3065 3439
3065 4258
3065 4301
3065 4355
3065 4824
3066 3463
3066 3522
3066 3732
3066 4076
3066 4163
3066 4420
3066 4440
3066 4845
3067 3722
3067 3820
3067 4008
3067 4816
3068 3187
3068 3295
3068 3516
3068 3685
3068 3883
3068 4017
3068 4133
3068 4163
3068 4430
3068 4445
3068 4659
3068 4761
3068 4896
3069 3084
3069 3746
3069 4141
3069 4990
3070 3080
3070 3150
3070 3417
3070 3547
3070 3661
3070 4125
3071 3093
3071 3200
3071 3276
3071 3625
3071 3637
3071 4312
3071 4324
3071 4408
3071 4669
3071 4947
3072 3257
3072 3488
3072 3827
3072 3935
3072 3952
3072 4294
3072 4327
3072 4422
3073 3169
3073 3191
3073 4323
3073 4376
3073 4875
3074 3595
3074 4064
3074 4233
3074 4410
3075 3759
3075 4109
3075 4187
3075 4321
3076 3198
3076 3338
3076 3570
3076 3643
3076 3749
3077 3142
3077 3342
3077 3568
3077 3873
3077 4467
3077 4490
3078 3143
3078 3353
3078 3975
3079 4158
3079 4810
3080 3385
3080 3502
3080 3547
3080 3615
3080 3664
3080 3849
3080 3970
3080 4033
3080 4197
3080 4831
3080 4932
3081 3593
3081 3884
3081 4670
3081 4911
3082 3708
3082 4299
3082 4764
3082 4867
3082 4941
3082 4986
3083 3179
3083 3266
3083 3279
3083 3596
3083 4062
3083 4227
3083 4747
3083 4886
3084 3700
3084 3745
3084 3746
3084 3872
3084 3908
3084 4250
3084 4264
3084 4470
3084 4577
3084 4990
3085 3339
3085 3875
3085 4801
3086 3226
3086 3305
3086 3355
3086 3484
3086 4808
3087 3139
3087 3162
3087 3354
3087 4092
3087 4580
3088 3233
3088 3655
3088 3819
3088 4039
3088 4088
3088 4191
3088 4478
3088 4513
3088 4772
3089 3275
3089 3940
3089 4405
3089 4598
3090 3323
3090 3477
3090 3811
3090 4054
3090 4121
3090 4287
3090 4403
3090 4525
3090 4531
3090 4674
3090 4979
3091 3458
3091 3520
3091 3576
3091 3649
3091 3806
3091 4250
3091 4305
3091 4574
3091 4643
3091 4781
3092 3285
3092 3691
3092 4244
3092 4542
3092 4729
3092 4867
3093 3745
3093 3747
3093 4592
3093 4698
3094 3367
3094 3376
3094 3689
3094 4178
3094 4293
3094 4364
3094 4500
3095 3199
3095 3250
3095 3441
3095 3557
3095 3585
3095 3863
3095 4106
3095 4165
3095 4186
3095 4229
3095 4319
3095 4361
3095 4414
3095 4438
3095 4757
3095 4861
3096 3315
3096 3328
3097 3459
3097 3822
3097 4137
3097 4147
3097 4194
3097 4200
3097 4429
3097 4822
3097 4860
3097 4890
3098 3186
3098 3912
3098 4017
3098 4202
3098 4208
3098 4600
3098 4834
3098 4957
3099 3466
3099 3769
3099 4052
3099 4654
3099 4858
3100 3467
3100 3500
3100 3504
3100 3594
3100 4713
3100 4781
3101 3160
3101 3245
3101 3324
3101 4044
3101 4180
3101 4314
3101 4767
3101 4794
3101 4988
3101 4994
3102 3696
3102 4038
3102 4236
3102 4387
3102 4643
3102 4652
3102 4885
3103 4295
3103 4753
3104 3186
3104 3324
3104 3617
3104 4085
3105 3342
3105 4162
3105 4188
3105 4467
3105 4760
3106 3107
3106 3228
3106 3651
3106 3939
3106 4139
3106 4262
3106 4363
3107 3203
3107 3236
3107 3275
3107 3820
3107 4191
3107 4549
3107 4760
3107 4861
3107 4978
3108 3176
3108 4430
3108 4811
3108 4842
3109 3330
3109 3361
3109 3477
3109 4262
3109 4528
3109 4554
3109 4577
3109 4652
3109 4771
3110 3252
3110 3383
3110 4127
3110 4380
3110 4894
3111 3195
3111 3404
3111 3978
3111 4054
3111 4345
3111 4376
3111 4554
3111 4712
3112 3544
3112 3559
3112 4462
3113 4793
3113 4920
3113 4956
3114 3495
3114 3632
3115 3160
3115 3263
3115 4381
3115 4680
3115 4697
3116 3213
3116 3255
3116 3354
3116 3429
3116 3507
3116 3913
3116 4189
3116 4352
3117 3162
3117 3172
3117 3539
3117 3641
3117 3810
3117 4072
3117 4108
3117 4589
3117 4593
3117 4833
3117 4849
3118 3122
3118 3186
3118 3226
3118 3812
3118 4067
3118 4143
3118 4201
3118 4375
3118 4501
3118 4514
3119 3252
3119 3757
3119 3780
3119 3924
3119 4160
3119 4178
3119 4212
3119 4530
3119 4700
3119 4785
3120 3196
3120 3304
3120 4246
3121 3357
3121 3599
3121 3973
3121 4928
3122 3467
3122 4067
3122 4375
3122 4545
3123 3171
3123 3715
3123 3740
3123 4258
3123 4266
3123 4490
3124 3389
3124 3767
3124 4328
3124 4734
3124 4744
3124 4938
3125 3135
3125 3326
3125 3565
3125 3890
3125 4848
3126 3357
3126 3536
3126 3559
3126 3876
3126 4462
3126 4988
3127 3644
3127 4059
3127 4172
3127 4232
3127 4365
3128 3154
3128 3332
3128 3841
3128 3963
3128 4252
3128 4381
3129 3354
3129 4722
3129 4795
3130 3307
3130 3324
3130 3541
3131 3202
3131 3795
3131 4734
3132 3455
3132 4006
3132 4165
3132 4586
3133 3670
3133 3890
3133 3924
3133 4274
3133 4335
3133 4774
3133 4828
3133 4879
3134 4624
3134 4806
3134 4892
3135 3219
3135 3229
3135 3326
3135 3565
3135 3623
3135 3636
3135 3890
3135 4097
3135 4465
3136 3245
3137 4144
3138 3172
3138 3334
3138 3382
3138 3574
3138 3605
3138 3610
3138 4062
3139 3198
3139 3309
3139 3659
3139 3786
3139 4076
3139 4181
3139 4413
3139 4699
3139 4766
3139 4948
3140 3198
3140 3260
3140 3332
3140 3510
3140 3514
3140 3624
3140 3763
3140 3809
3140 3845
3140 4422
3140 4603
3140 4986
3141 3746
3141 4170
3141 4300
3141 4419
3141 4506
3141 4538
3142 3634
3142 3652
3142 3799
3142 3856
3142 3940
3142 4428
3142 4571
3142 4744
3143 3247
3143 3716
3143 4303
3144 3951
3144 4488
3145 4229
3146 3267
3146 3829
3146 3945
3146 4130
3146 4807
3147 3584
3147 3985
3147 4938
3148 3156
3148 3537
3148 3828
3148 3850
3148 4087
3148 4356
3148 4364
3148 4383
3148 4945
3149 3312
3149 4168
3149 4385
3149 4424
3150 3200
3150 3291
3150 3417
3150 3606
3150 4550
3150 4703
3150 4708
3151 3463
3151 3474
3151 3552
3151 3722
3151 3735
3151 4105
3151 4173
3151 4522
3152 3488
3152 4415
3153 3201
3153 3316
3153 4138
3153 4537
3153 4890
3154 3379
3154 3913
3154 3963
3154 4050
3155 3738
3155 3826
3155 3963
3155 4009
3155 4082
3156 3828
3156 4317
3156 4356
3156 4383
3156 4471
3156 4844
3156 4945
3157 3602
3157 4294
3157 4958
3158 3410
3158 3738
3158 3755
3158 4568
3158 4608
3158 4870
3158 4989
3159 3208
3159 3262
3159 3299
3159 3540
3159 3984
3159 4296
3159 4437
3159 4470
3159 4739
3159 4789
3160 3268
3160 3710
3160 3739
3160 3793
3160 4517
3160 4563
3160 4765
3161 3199
3161 3274
3161 3337
3161 3362
3161 3431
3161 4502
3161 4513
3161 4615
3161 4698
3161 4742
3161 4778
3161 4862
3162 3163
3162 3414
3162 3515
3162 3690
3162 3885
3162 3920
3162 4191
3162 4556
3162 4611
3162 4970
3163 3528
3163 3672
3163 4818
3164 4017
3165 3403
3165 3673
3165 4359
3166 3396
3166 3819
3166 4249
3167 3340
3167 4759
3167 4919
3167 4998
3168 3904
3168 3982
3168 4033
3168 4175
3168 4644
3168 4967
3169 3293
3169 3327
3169 3608
3169 3895
3169 3979
3169 4023
3169 4048
3169 4273
3169 4276
3169 4845
3170 3565
3170 4102
3171 3715
3171 4490
3172 3437
3172 3641
3172 3950
3172 4108
3172 4248
3172 4448
3172 4461
3172 4589
3172 4658
3172 4833
3173 3643
3173 3742
3173 3749
3173 3813
3173 3968
3173 4044
3173 4393
3173 4630
3173 4694
3173 4907
3174 3408
3175 3239
3175 3688
3175 4868
3176 3233
3176 3359
3176 3591
3176 4162
3176 4430
3176 4493
3176 4607
3176 4732
3176 4884
3177 3564
3177 3588
3178 3474
3178 3649
3178 3928
3178 4164
3179 3276
3179 3386
3179 4114
3179 4227
3179 4487
3179 4579
3179 4607
3179 4865
3179 4886
3180 3721
3180 3808
3180 4138
3180 4281
3180 4308
3180 4573
3180 4652
3181 3384
3181 3932
3181 4641
3182 3235
3182 3436
3182 3588
3182 3641
3182 3909
3182 3967
3182 4122
3182 4971
3182 4992
3182 4993
3183 3449
3183 4642
3183 4690
3183 4704
3184 3772
3184 4410
3184 4503
3185 3407
3185 3543
3185 3552
3185 4150
3185 4233
3185 4762
3185 4876
3186 3918
3186 3978
3186 4116
3186 4381
3187 3257
3187 3448
3187 3544
3187 3593
3187 3685
3187 3883
3187 3945
3187 4445
3187 4761
3188 3494
3188 3539
3188 4502
3188 4536
3188 4637
3188 4647
3189 3600
3189 3888
3189 4272
3189 4824
3189 4942
3190 3398
3190 3506
3190 3865
3190 3873
3190 4587
3190 4771
3190 4846
3191 3500
3191 4376
3191 4677
3191 4795
3191 4875
3192 3495
3192 3621
3192 3663
3192 3797
3192 4441
3192 4464
3192 4627
3193 3226
3193 4085
3193 4113
3193 4420
3193 4470
3193 4495
3193 4614
3193 4691
3193 4963
3194 3663
3194 4276
3194 4352
3194 4427
3194 4671
3194 4867
3195 4345
3195 4362
3195 4521
3195 4554
3195 4953
3196 4843
3197 3450
3197 3552
3197 3711
3197 3863
3197 4219
3197 4628
3197 4701
3197 4768
3197 4999
3198 3244
3198 3428
3198 3565
3198 3854
3198 3970
3198 4087
3198 4815
3198 4936
3198 4969
3198 4995
3199 3643
3199 3712
3199 4303
3199 4529
3199 4580
3199 4666
3199 4931
3200 3750
3200 4150
3200 4569
3200 4699
3200 4986
3201 3567
3201 4138
3201 4537
3201 4990
3202 3589
3202 3795
3202 4857
3202 4956
3203 3380
3203 3606
3203 3952
3203 4263
3204 4852
3205 3228
3205 3308
3205 3353
3205 3572
3205 3916
3205 3925
3205 4013
3205 4182
3205 4222
3206 3990
3206 3998
3206 4041
3206 4200
3206 4286
3206 4398
3206 4455
3207 3228
3207 3801
3207 3939
3207 4262
3207 4978
3208 3389
3208 3483
3208 3487
3208 3984
3208 4073
3208 4124
3208 4279
3208 4416
3208 4662
3208 4708
3208 4739
3208 4789
3208 4830
3208 4980
3208 4981
3209 3659
3209 3666
3209 4135
3209 4316
3209 4715
3209 4733
3209 4963
3210 3344
3210 3652
3210 4645
3210 4866
3211 3732
3211 3854
3211 4097
3212 3268
3212 3294
3212 3381
3212 3845
3212 4006
3212 4081
3212 4758
3213 3354
3213 3429
3213 3538
3213 3791
3213 3819
3213 4162
3213 4189
3213 4376
3213 4473
3214 3716
3214 4462
3214 4750
3215 3332
3215 3519
3215 3623
3215 3660
3215 4207
3215 4697
3215 4745
3215 4803
3216 3609
3216 4028
3217 3871
3217 3938
3217 4516
3218 4129
3218 4315
3218 4468
3218 4988
3219 3349
3219 4613
3219 4958
3220 3263
3220 3476
3220 4329
3220 4580
3220 4604
3221 3231
3221 3401
3221 3413
3221 3721
3221 4439
3222 3855
3222 4293
3222 4612
3222 4797
3223 3477
3223 3727
3223 4086
3223 4456
3223 4491
3224 4358
3224 4501
3224 4639
3225 3439
3225 3561
3225 4638
3225 4902
3226 3786
3226 4014
3226 4055
3226 4113
3226 4277
3226 4420
3227 3533
3227 3621
3227 3914
3227 4445
3227 4450
3227 4749
3227 4842
3228 3704
3228 3939
3228 4262
3228 4296
3228 4358
3228 4643
3228 4858
3228 4865
3229 3275
3229 3326
3229 3565
3229 3890
3230 3706
3230 3902
3230 4057
3230 4110
3230 4166
3230 4187
3230 4769
3231 4171
3231 4439
3231 4984
3232 3679
3232 3935
3232 4084
3232 4586
3233 4084
3234 3312
3234 4008
3234 4418
3234 4643
3234 4731
3235 3436
3235 3619
3235 3664
3235 3825
3235 3861
3235 3908
3235 3909
3235 3967
3235 4032
3235 4122
3235 4509
3235 4519
3235 4880
3235 4971
3236 3619
3236 3668
3236 3743
3236 4191
3236 4760
3236 4861
3237 3442
3237 3541
3237 3678
3237 4512
3237 4886
3238 3374
3238 4003
3238 4055
3238 4192
3238 4995
3239 3361
3239 3523
3239 3585
3239 3688
3239 3748
3239 4357
3239 4371
3239 4831
3240 3427
3240 3510
3240 3599
3240 3604
3240 3709
3240 3788
3240 4091
3240 4103
3240 4560
3240 4923
3241 3790
3241 3908
3241 4357
3241 4377
3241 4461
3242 3588
3242 3962
3242 4087
3242 4582
3242 4691
3243 3251
3243 3392
3243 3546
3243 3549
3243 3660
3243 3662
3243 3809
3243 4770
3243 4917
3244 3427
3244 3813
3244 3827
3244 4140
3244 4150
3244 4163
3244 4505
3244 4660
3245 3562
3245 3758
3245 4044
3245 4260
3246 3425
3246 3483
3246 3972
3246 4106
3246 4433
3246 4484
3247 4925
3248 3327
3248 4589
3248 4690
3249 4951
3249 4984
3250 4094
3250 4231
3250 4329
3250 4553
3250 4587
3250 4967
3251 3827
3251 4029
3251 4214
3252 3299
3252 3634
3252 3674
3252 3757
3252 3759
3252 3824
3252 4160
3252 4212
3252 4710
3252 4755
3252 4976
3253 4027
3253 4092
3253 4567
3253 4771
3253 4772
3254 3437
3254 3705
3254 3802
3254 4395
3254 4448
3255 3349
3255 3584
3255 3981
3255 4159
3255 4223
3255 4364
3255 4655
3255 4863
3256 3464
3256 3896
3256 4240
3256 4663
3256 4826
3256 4833
3257 3368
3257 3552
3257 3695
3257 4664
3257 4754
3257 4916
3257 4937
3258 3487
3258 3673
3258 3708
3258 3894
3258 4083
3259 4605
3259 4846
3260 3327
3260 3524
3260 3854
3260 4129
3261 4587
3261 4615
3261 4918
3262 3712
3262 3946
3262 4134
3262 4202
3262 4654
3262 4672
3262 4696
3263 3476
3263 3884
3263 4604
3264 3413
3264 4029
3264 4227
3264 4261
3264 4611
3264 4723
3264 4955
3265 4824
3265 4850
3265 4943
3265 4984
3266 3801
3266 3807
3266 3898
3266 4093
3267 3608
3267 3819
3267 3829
3267 3945
3267 4026
3267 4088
3267 4273
3267 4807
3268 3381
3268 3423
3268 3482
3268 3708
3268 4081
3268 4191
3268 4220
3268 4850
3269 3324
3269 3592
3269 4176
3269 4323
3269 4447
3269 4624
3269 4735
3269 4761
3269 4842
3270 3606
3270 4793
3271 3442
3271 3622
3271 3624
3271 3869
3271 4911
3272 3538
3272 4470
3273 3333
3273 3413
3273 3781
3273 3821
3273 4303
3273 4795
3274 3325
3274 3468
3274 4103
3274 4333
3274 4421
3274 4468
3274 4478
3275 3485
3275 3866
3275 4189
3275 4245
3275 4381
3275 4423
3275 4485
3275 4524
3275 4596
3276 4702
3277 3584
3277 3711
3277 3995
3277 4214
3277 4406
3277 4516
3277 4570
3277 4599
3277 4892
3278 3355
3278 3397
3278 4325
3278 4643
3279 3289
3279 3459
3279 3981
3279 4004
3279 4315
3279 4749
3280 3620
3280 3743
3280 3898
3280 4044
3280 4223
3280 4897
3281 3765
3281 4198
3281 4326
3281 4379
3282 3898
3282 4261
3283 3386
3283 3526
3283 3776
3283 3829
3283 3919
3283 4364
3283 4373
3284 3790
3284 4241
3284 4551
3284 4702
3284 4890
3284 4959
3285 3742
3285 3789
3285 3807
3285 4019
3285 4599
3285 4864
3285 4998
3286 4870
3287 3777
3287 3846
3287 4166
3287 4297
3287 4571
3287 4629
3287 4748
3288 3341
3288 3741
3288 4330
3288 4344
3288 4711
3288 4875
3289 3459
3289 3652
3289 3726
3289 4315
3289 4628
3289 4865
3289 4890
3290 3645
3290 3839
3290 4174
3290 4665
3291 3616
3291 3636
3291 3864
3291 4148
3291 4615
3291 4682
3291 4784
3291 4929
3292 4103
3293 3375
3293 3491
3293 3871
3293 4412
3294 4503
3294 4839
3295 3525
3295 3555
3295 4278
3295 4407
3295 4853
3295 4890
3297 3837
3297 3898
3297 4087
3297 4682
3297 4865
3298 3588
3298 3842
3298 4188
3298 4518
3298 4571
3299 3463
3299 4140
3299 4741
3299 4885
3300 3616
3300 3671
3300 4152
3300 4309
3300 4637
3301 3415
3301 3481
3301 3540
3301 3586
3301 3764
3301 4045
3302 3700
3302 4782
3303 3612
3303 4162
3303 4502
3303 4504
3303 4827
3304 3515
3304 4120
3304 4333
3304 4645
3304 4735
3304 4908
3304 4948
3304 4970
3304 4991
3305 3355
3305 3441
3305 3699
3305 4641
3305 4972
3306 3654
3306 4530
3306 4567
3307 3363
3307 3627
3307 3878
3307 4153
3307 4201
3307 4360
3307 4533
3307 4966
3308 3572
3308 3574
3308 3684
3308 3689
3308 3965
3308 4019
3308 4060
3308 4222
3308 4639
3308 4715
3309 3467
3310 3920
3310 4070
3310 4635
3311 3477
3311 3561
3311 4181
3311 4568
3311 4803
3312 3539
3312 3950
3312 4115
3312 4289
3312 4418
3312 4550
3313 3445
3313 4393
3313 4881
3314 3418
3314 3534
3314 3668
3314 3807
3314 4092
3314 4351
3315 3388
3315 3392
3315 3905
3315 3959
3315 3993
3315 4250
3315 4529
3315 4539
3315 4619
3315 4871
3316 3446
3316 3521
3316 4268
3317 3584
3317 3608
3317 3711
3317 3979
3317 3986
3317 4114
3317 4590
3317 4673
3317 4782
3318 3585
3318 4153
3318 4416
3318 4617
3318 4715
3318 4989
3319 3423
3319 3583
3319 3651
3319 3751
3319 3779
3319 3959
3319 4348
3319 4632
3319 4869
3320 3726
3320 3799
3320 3803
3320 4049
3320 4362
3321 4304
3321 4853
3321 4987
3322 3540
3322 3584
3322 3626
3322 4114
3322 4577
3322 4782
3323 3773
3323 3778
3323 4707
3324 3647
3324 3726
3324 4323
3324 4466
3324 4547
3324 4847
3325 4333
3326 3565
3326 3819
3326 3890
3326 4631
3327 3524
3327 3639
3328 4126
3328 4276
3328 4317
3328 4837
3329 3527
3329 4074
3330 3373
3330 3414
3330 3898
3330 4435
3330 4440
3330 4587
3330 4649
3331 3494
3331 3673
3331 3930
3331 4585
3331 4883
3331 4902
3332 3519
3332 4207
3332 4452
3332 4658
3333 3413
3333 3732
3333 3979
3333 4303
3334 3452
3334 3785
3334 3890
3334 4090
3334 4189
3334 4879
3335 3412
3335 3940
3335 3964
3335 4526
3335 4820
3335 4898
3336 3509
3336 4039
3336 4832
3336 4962
3337 3437
3337 4615
3337 4698
3337 4778
3337 4862
3338 3975
3338 4004
3338 4418
3338 4680
3339 3800
3339 4155
3339 4801
3340 4919
3341 4582
3342 3417
3342 3814
3342 4016
3342 4096
3342 4189
3342 4467
3342 4553
3343 3547
3343 3640
3343 3959
3343 4733
3343 4851
3343 4880
3344 3424
3344 3567
3344 3860
3344 4123
3344 4134
3344 4255
3344 4349
3344 4525
3344 4775
3345 3491
3345 3668
3345 4045
3345 4371
3345 4539
3346 4122
3346 4244
3346 4845
3346 4880
3347 3790
3347 3839
3347 4082
3347 4324
3348 3516
3348 3518
3348 3582
3348 3988
3348 4100
3348 4326
3348 4434
3348 4596
3348 4876
3349 3750
3349 3830
3349 3871
3349 3954
3349 4134
3349 4395
3349 4396
3349 4491
3349 4613
3350 3913
3350 4785
3351 3462
3351 3864
3351 4378
3351 4570
3351 4747
3351 4954
3352 3522
3352 3565
3352 3772
3352 3946
3352 4007
3352 4236
3352 4357
3352 4436
3352 4823
3353 4111
3354 3429
3354 4154
3354 4155
3354 4189
3354 4473
3354 4859
3355 3441
3355 3658
3355 3885
3355 3963
3355 4179
3355 4324
3355 4808
3355 4855
3356 3370
3356 3393
3356 3928
3356 4170
3356 4645
3357 4277
3357 4462
3357 4486
3357 4536
3357 4675
3358 3780
3358 3894
3358 3898
3358 4476
3359 4493
3359 4938
3360 3394
3360 3526
3360 4018
3360 4357
3360 4618
3360 4735
3361 3650
3361 3688
3361 3748
3361 3793
3361 4052
3361 4103
3361 4721
3361 4831
3362 3541
3362 4966
3362 4998
3363 3376
3363 3541
3363 3737
3363 4966
3364 3431
3364 3518
3364 3629
3364 4667
3364 4769
3364 4960
3365 3946
3365 4080
3365 4468
3365 4541
3366 3453
3366 3533
3366 3577
3366 3661
3366 4184
3366 4509
3366 4919
3366 4994
3367 3376
3367 4178
3367 4583
3367 4801
3367 4832
3368 3653
3368 4302
3368 4836
3369 4344
3369 4841
3369 4946
3370 3510
3370 4317
3370 4513
3370 4805
3370 4881
3371 3614
3371 3704
3371 4151
3371 4232
3371 4594
3371 4938
3372 3790
3372 3878
3372 4394
3373 3414
3373 3811
3373 3898
3373 4607
3373 4702
3374 3377
3374 4003
3374 4117
3374 4618
3375 3689
3375 4024
3375 4087
3375 4095
3375 4378
3375 4615
3376 3693
3376 4178
3377 3804
3377 4003
3377 4152
3377 4616
3378 3720
3378 3963
3378 4716
3379 3570
3379 3749
3379 3968
3379 4109
3379 4580
3379 4813
3380 3443
3380 3503
3380 4805
3380 4894
3381 3551
3381 4010
3381 4081
3381 4850
3382 3605
3382 4075
3382 4159
3382 4893
3383 4127
3383 4133
3383 4380
3383 4894
3384 3418
3384 4405
3384 4784
3384 4798
3384 4903
3385 3527
3385 3850
3386 3509
3386 3776
3386 4181
3387 4116
3387 4797
3387 4863
3388 3746
3388 3818
3388 3969
3388 4185
3388 4267
3388 4306
3388 4491
3388 4641
3388 4801
3389 3815
3389 4114
3389 4198
3390 3983
3390 4071
3390 4580
3390 4840
3390 4901
3391 3396
3392 3584
3392 4889
3393 3928
3393 4003
3393 4017
3394 3438
3394 4618
3395 3481
3395 3588
3395 4417
3395 4673
3395 4865
3396 3651
3397 3474
3397 3477
3397 4038
3397 4643
3398 3506
3398 4256
3398 4272
3399 3600
3399 3739
3399 3838
3399 3847
3399 3988
3399 4081
3399 4933
3400 4347
3400 4390
3400 4684
3401 3436
3401 3612
3401 4321
3401 4392
3401 4702
3402 3913
3402 4192
3402 4997
3403 3764
3403 3852
3403 4224
3404 3412
3404 3431
3404 3550
3404 4116
3404 4367
3404 4476
3404 4482
3404 4618
3404 4766
3404 4872
3405 3674
3405 4027
3405 4431
3405 4478
3406 3934
3406 3987
3406 4039
3406 4862
3407 3479
3407 3543
3407 4182
3407 4189
3407 4327
3407 4876
3408 3449
3408 3918
3408 3986
3408 4195
3408 4265
3408 4519
3408 4573
3408 4588
3408 4891
3409 3834
3409 3899
3409 4092
3409 4110
3409 4204
3409 4318
3409 4508
3410 3421
3410 3890
3410 4089
3410 4938
3411 3598
3411 3994
3411 4800
3411 4834
3412 3940
3413 3876
3413 4121
3413 4270
3414 3898
3415 3764
3415 4045
3415 4345
3416 4253
3416 4279
3416 4442
3416 4966
3417 4398
3417 4550
3418 3742
3418 4202
3418 4334
3418 4490
3418 4583
3418 4798
3418 4903
3419 3593
3419 3880
3419 4078
3419 4100
3419 4798
3420 3562
3420 3758
3420 4268
3421 3425
3422 3701
3422 4130
3422 4925
3423 3440
3424 3664
3424 3953
3424 4030
3424 4830
3425 3851
3425 3943
3425 4433
3425 4924
3425 4970
3426 3525
3426 4064
3426 4620
3427 3462
3427 3639
3427 3896
3427 4025
3427 4188
3427 4426
3427 4658
3428 3540
3428 3554
3428 3586
3428 4018
3429 3951
3429 3974
3429 4189
3429 4473
3429 4586
3430 3560
3430 4157
3430 4362
3431 3598
3431 3907
3431 3924
3431 4015
3431 4649
3431 4667
3431 4769
3431 4812
3431 4960
3432 3505
3432 3570
3432 3658
3432 3727
3432 4907
3433 3490
3433 4480
3434 3524
3434 4475
3434 4977
3435 3437
3435 3448
3435 3667
3435 3748
3435 4511
3435 4726
3435 4855
3435 4904
3435 4912
3436 4005
3436 4104
3436 4122
3436 4436
3436 4455
3437 3705
3437 3974
3437 4745
3437 4761
3438 4148
3438 4232
3438 4618
3439 4638
3439 4694
3439 4902
3441 3465
3441 3646
3441 4618
3442 3527
3442 3662
3442 3673
3442 3852
3442 4205
3442 4208
3442 4284
3442 4294
3442 4344
3442 4512
3442 4528
3442 4546
3442 4767
3442 4867
3442 4962
3443 3561
3443 3757
3443 4420
3443 4657
3443 4935
3444 4209
3444 4254
3445 3599
3445 4112
3445 4217
3445 4648
3445 4877
3445 4898
3445 4969
3446 3490
3446 3614
3446 3689
3446 3749
3446 3775
3446 3820
3446 4391
3446 4569
3446 4915
3447 3958
3447 3998
3447 4682
3447 4939
3448 3485
3448 3876
3448 3989
3448 4934
3448 4992
3449 4479
3449 4519
3450 3623
3450 4633
3450 4682
3450 4891
3451 3684
3451 4971
3452 3518
3452 3558
3452 4026
3452 4090
3452 4123
3452 4193
3452 4216
3452 4665
3452 4751
3452 4832
3452 4879
3453 3559
3453 3835
3453 4040
3453 4131
3453 4316
3453 4560
3453 4724
3453 4777
3454 4004
3454 4265
3454 4985
3455 4600
3455 4755
3456 3518
3456 4067
3456 4078
3456 4747
3457 4411
3457 4427
3457 4441
3457 4490
3457 4572
3457 4622
3458 3520
3458 3576
3458 3753
3458 3806
3458 4781
3458 4804
3459 4231
3459 4315
3459 4878
3460 3571
3460 3990
3460 4053
3460 4234
3460 4795
3461 3573
3461 3775
3461 4087
3461 4436
3461 4764
3462 4666
3462 4805
3463 3665
3463 3670
3463 3688
3463 3976
3463 4158
3463 4494
3463 4630
3463 4694
3463 4717
3464 3620
3464 3893
3464 4125
3464 4265
3464 4354
3464 4372
3464 4476
3464 4639
3464 4764
3464 4785
3464 4945
3465 3674
3466 3741
3466 3754
3466 3768
3466 3769
3466 3875
3466 4024
3466 4101
3466 4189
3466 4346
3466 4654
3467 3594
3467 3646
3467 4144
3467 4244
3467 4506
3468 4012
3468 4188
3468 4484
3468 4584
3468 4940
3469 3532
3469 3898
3469 3917
3469 4017
3469 4428
3469 4573
3469 4580
3469 4758
3469 4796
3469 4921
3470 3596
3470 4434
3470 4858
3472 4153
3472 4197
3472 4368
3472 4872
3473 3717
3473 4278
3473 4702
3473 4790
3473 4972
3474 3487
3474 3589
3474 3686
3474 3722
3474 3735
3474 4173
3474 4522
3474 4639
3474 4650
3474 4735
3474 4863
3474 4891
3475 3783
3475 4002
3475 4215
3476 3518
3476 4604
3476 4718
3476 4768
3477 4361
3477 4533
3477 4544
3477 4564
3477 4577
3477 4725
3477 4771
3478 4460
3478 4462
3478 4503
3478 4518
3478 4744
3478 4802
3478 4887
3479 4080
3479 4436
3480 4059
3480 4353
3480 4528
3480 4544
3480 4789
3481 4284
3481 4732
3481 4865
3481 4875
3481 4897
3482 3691
3482 4081
3482 4177
3482 4926
3483 3514
3483 3692
3483 4016
3483 4752
3484 3652
3484 3711
3484 4177
3484 4768
3484 4999
3485 4593
3486 3853
3486 4533
3486 4899
3487 3510
3487 3722
3487 3735
3487 4522
3487 4903
3487 4989
3488 3523
3488 4413
3489 3538
3489 3827
3489 4630
3490 3669
3490 3673
3490 3707
3490 3912
3490 4067
3490 4331
3490 4480
3490 4716
3490 4736
3491 3804
3491 4813
3492 3628
3492 4159
3492 4324
3492 4425
3493 3652
3493 4383
3493 4846
3494 3495
3494 3639
3494 3704
3494 4489
3494 4502
3494 4637
3494 4647
3494 4716
3495 3621
3495 3891
3495 4268
3495 4393
3495 4441
3495 4627
3496 4136
3496 4172
3496 4321
3496 4369
3496 4781
3496 4784
3497 3644
3497 3825
3497 3993
3498 3833
3498 4006
3499 3500
3500 3610
3500 3751
3500 3841
3500 3935
3500 4046
3500 4199
3500 4212
3500 4213
3500 4790
3501 3570
3501 4073
3501 4832
3501 4871
3502 3637
3502 4935
3503 3934
3503 4149
3503 4453
3503 4802
3503 4842
3503 4870
3504 3594
3504 4111
3504 4789
3504 4817
3505 3628
3505 4176
3505 4229
3505 4686
3505 4804
3506 4718
3506 4840
3507 3658
3507 3762
3507 3790
3507 3834
3507 3878
3507 4394
3507 4596
3507 4611
3508 3649
3508 3891
3509 3512
3509 4039
3509 4112
3509 4118
3509 4431
3509 4437
3509 4720
3509 4832
3510 3771
3510 4273
3510 4489
3510 4629
3511 3575
3511 3724
3511 3797
3511 3839
3511 4273
3511 4836
3512 3606
3512 4470
3512 4705
3513 3960
3513 4381
3513 4447
3513 4534
3514 4603
3514 4647
3514 4896
3515 3761
3515 3920
3515 3980
3515 4556
3515 4916
3515 4970
3516 4210
3516 4225
3516 4247
3516 4432
3516 4764
3517 4399
3518 4747
3519 3852
3519 4207
3519 4913
3520 3576
3520 3806
3520 4046
3520 4188
3520 4781
3521 3759
3521 3775
3521 4191
3521 4357
3522 3715
3522 3728
3522 4958
3523 3649
3523 4321
3523 4577
3523 4940
3524 4088
3524 4784
3525 3555
3525 3797
3525 4202
3525 4407
3525 4559
3525 4853
3525 4894
3525 4916
3526 4261
3527 4074
3528 3672
3528 3883
3528 4241
3528 4416
3528 4675
3528 4768
3528 4797
3529 3628
3529 4013
3529 4531
3530 3534
3530 3619
3530 4011
3530 4323
3530 4462
3531 3566
3531 4204
3531 4488
3531 4970
3532 3617
3532 3743
3532 4323
3533 4002
3533 4215
3533 4466
3534 3650
3535 3943
3535 4492
3536 4496
3536 4587
3536 4928
3537 4470
3537 4787
3537 4941
3538 3559
3538 3658
3538 3729
3538 4384
3538 4470
3538 4777
3539 3597
3539 3774
3539 3932
3539 4166
3539 4449
3539 4577
3539 4827
3539 4927
3540 3554
3540 3586
3540 3789
3540 4018
3540 4390
3541 3627
3541 4241
3541 4966
3541 4981
3542 3633
3542 3782
3542 4523
3542 4636
3542 4786
3542 4847
3543 3797
3543 4187
3543 4279
3543 4795
3543 4876
3543 4989
3545 4657
3546 3660
3547 3615
3547 3849
3547 4033
3547 4208
3547 4531
3548 3804
3548 4581
3548 4584
3549 3660
3549 3662
3549 3721
3549 4025
3550 4114
3550 4410
3550 4602
3550 4737
3550 4826
3551 4022
3551 4405
3551 4795
3552 3695
3552 4006
3552 4114
3552 4405
3552 4410
3552 4503
3552 4664
3552 4754
3552 4937
3552 4969
3553 3841
3553 4351
3553 4546
3553 4990
3554 3586
3554 4182
3555 4094
3555 4116
3555 4223
3555 4407
3555 4429
3555 4853
3555 4913
3556 3782
3556 3920
3556 4283
3556 4516
3556 4566
3556 4576
3556 4699
3556 4960
3557 3833
3557 4130
3557 4376
3557 4546
3557 4897
3559 3735
3559 4040
3559 4560
3559 4666
3559 4850
3559 4867
3560 3670
3560 4200
3560 4427
3560 4623
3560 4889
3561 3612
3561 3745
3561 4181
3561 4513
3561 4565
3562 3758
3562 4070
3562 4260
3563 3783
3563 4206
3563 4913
3564 3717
3564 3798
3564 3873
3564 4166
3565 3651
3565 3890
3565 3931
3565 3935
3565 4218
3565 4465
3565 4891
3566 3943
3566 4012
3566 4488
3566 4516
3566 4605
3566 4954
3567 3710
3567 4025
3567 4134
3567 4591
3567 4775
3568 3758
3568 4949
3569 3931
3569 4053
3569 4081
3569 4434
3570 3736
3570 3749
3570 3813
3570 3858
3570 4173
3570 4362
3570 4521
3570 4561
3570 4694
3570 4697
3570 4907
3570 4949
3571 3665
3571 3813
3571 4619
3571 4806
3571 4813
3571 4864
3572 3916
3572 4019
3572 4222
3573 3752
3573 4439
3573 4729
3573 4764
3574 4115
3574 4334
3574 4573
3574 4592
3574 4646
3574 4823
3575 3780
3575 4686
3576 3806
3576 4249
3576 4473
3576 4781
3577 3596
3577 3819
3577 3987
3577 4455
3577 4849
3577 4951
3577 4991
3578 3810
3578 4905
3579 4690
3580 3622
3580 4356
3580 4848
3581 3938
3581 3961
3581 3990
3581 4000
3581 4023
3581 4153
3581 4397
3581 4735
3582 4326
3582 4462
3582 4596
3582 4933
3583 3779
3583 4077
3583 4805
3583 4819
3583 4869
3584 3772
3584 3979
3584 4114
3584 4313
3584 4673
3584 4782
3584 4859
3584 4877
3585 3640
3585 3772
3585 3774
3585 4091
3585 4363
3585 4416
3585 4474
3585 4787
3585 4989
3586 4018
3586 4196
3587 4503
3587 4762
3588 3907
3588 3913
3588 4248
3588 4420
3588 4566
3588 4581
3588 4919
3589 3601
3589 3914
3589 4176
3589 4204
3589 4275
3589 4583
3589 4794
3589 4947
3590 3593
3590 3606
3590 3659
3590 3752
3590 4135
3590 4715
3590 4733
3591 3937
3591 4478
3591 4541
3591 4589
3592 4216
3592 4735
3593 3989
3593 4592
3593 4670
3594 3764
3594 4817
3595 3623
3596 3848
3596 4028
3596 4312
3596 4630
3596 4677
3597 3931
3597 4129
3597 4138
3597 4241
3598 3948
3598 3994
3598 4015
3598 4467
3598 4691
3598 4785
3599 3753
3599 3872
3599 3897
3599 4170
3599 4238
3599 4282
3599 4355
3599 4439
3599 4722
3599 4882
3599 4954
3599 4959
3599 4963
3600 3652
3600 3838
3600 4208
3600 4520
3600 4798
3601 3619
3601 3622
3601 3738
3601 3757
3601 4045
3602 3780
3602 4809
3603 3794
3603 4197
3603 4432
3603 4680
3603 4956
3604 3761
3604 4169
3604 4425
3605 3878
3605 4062
3605 4377
3606 3897
3606 4373
3606 4376
3606 4479
3606 4530
3606 4616
3606 4676
3607 3952
3607 4502
3607 4770
3607 4779
3608 3895
3608 3962
3608 4714
3608 4847
3608 4898
3609 3724
3609 3748
3609 4030
3610 4988
3611 3685
3611 4338
3612 4321
3612 4633
3614 4416
3614 4438
3614 4664
3614 4705
3615 3849
3615 4033
3615 4461
3616 3676
3616 3965
3616 4156
3616 4283
3616 4461
3616 4751
3616 4961
3617 3851
3617 3860
3617 4829
3618 4074
3618 4477
3619 4191
3619 4345
3619 4505
3619 4760
3619 4766
3619 4861
3619 4978
3620 3812
3620 3963
3620 4182
3620 4502
3620 4843
3621 3833
3621 3944
3621 4352
3621 4441
3621 4465
3621 4520
3621 4627
3622 3624
3622 3869
3622 3995
3622 4083
3622 4301
3622 4408
3622 4596
3622 4621
3623 4283
3623 4621
3623 4682
3623 4988
3624 3745
3624 3834
3624 4564
3625 3637
3625 3862
3625 4389
3625 4408
3625 4669
3626 4353
3626 4362
3627 4966
3628 4105
3628 4177
3628 4363
3628 4425
3628 4511
3628 4928
3628 4952
3629 4857
3629 4907
3630 4051
3630 4337
3630 4742
3631 3732
3631 3802
3631 4862
3631 4873
3632 4456
3632 4738
3632 4784
3633 4523
3633 4636
3633 4786
3634 3856
3634 4380
3634 4428
3635 3953
3635 4096
3635 4145
3635 4600
3635 4819
3635 4977
3636 4512
3636 4690
3637 3719
3637 4188
3637 4408
3637 4669
3637 4741
3638 3819
3638 4856
3638 4967
3639 3896
3639 4121
3639 4366
3639 4426
3639 4543
3639 4648
3639 4771
3639 4845
3640 3670
3640 3725
3640 3858
3640 3915
3640 4135
3640 4351
3641 4108
3641 4182
3641 4589
3641 4607
3641 4658
3641 4782
3642 3885
3642 3914
3642 4402
3643 3840
3643 3869
3643 4212
3644 4081
3644 4333
3644 4365
3644 4607
3644 4819
3645 4174
3645 4471
3645 4665
3646 3709
3646 3798
3646 3927
3646 4436
3646 4476
3646 4689
3646 4792
3646 4945
3648 3724
3648 4036
3648 4116
3648 4119
3648 4728
3649 4029
3649 4219
3649 4263
3649 4510
3649 4694
3649 4936
3650 3811
3650 4146
3650 4216
3650 4410
3650 4998
3651 3911
3651 4049
3651 4304
3651 4372
3651 4452
3651 4571
3651 4623
3651 4672
3651 4733
3651 4751
3651 4804
3652 3669
3652 3823
3652 3859
3652 4370
3652 4404
3652 4866
3653 3997
3653 4302
3653 4462
3654 3804
3654 4054
3654 4226
3654 4451
3654 4589
3654 4789
3654 4852
3654 4931
3655 3793
3655 4164
3655 4760
3656 3815
3656 3952
3656 4055
3656 4461
3656 4798
3656 4993
3657 3891
3658 3972
3658 4320
3658 4737
3658 4749
3658 4804
3658 4903
3658 4994
3659 3671
3659 3895
3659 4013
3659 4135
3659 4190
3659 4263
3659 4580
3659 4639
3659 4715
3659 4733
3660 3662
3660 3720
3660 3972
3660 4019
3660 4384
3661 3783
3661 3947
3661 4089
3661 4131
3661 4184
3661 4315
3661 4994
3662 3711
3662 3844
3662 4384
3662 4413
3663 4352
3663 4446
3663 4671
3664 3698
3664 3722
3664 3842
3664 3856
3664 3881
3664 3925
3664 4183
3664 4648
3665 3813
3665 4593
3665 4619
3665 4806
3665 4807
3666 3906
3666 3993
3666 4147
3666 4638
3667 3841
3667 4109
3667 4907
3667 4970
3668 3826
3668 3867
3668 3896
3668 4048
3668 4116
3668 4234
3668 4366
3668 4700
3668 4726
3668 4747
3668 4752
3668 4857
3668 4901
3669 3744
3669 3749
3669 3895
3669 4128
3669 4240
3669 4746
3670 3725
3670 3915
3670 3959
3670 4335
3670 4855
3671 3677
3671 3877
3671 3942
3671 3972
3671 4021
3671 4407
3671 4895
3672 4021
3672 4529
3672 4574
3672 4675
3673 3955
3673 3990
3673 4087
3673 4152
3673 4154
3673 4242
3673 4442
3673 4857
3674 4251
3675 4119
3675 4436
3675 4484
3675 4905
3676 4722
3677 3877
3677 4076
3677 4152
3677 4784
3677 4834
3677 4895
3678 3761
3678 4119
3678 4161
3678 4169
3678 4243
3679 3711
3679 4031
3679 4084
3679 4223
3679 4612
3680 3904
3680 4374
3681 3709
3681 4034
3681 4470
3682 3696
3682 3889
3682 4121
3682 4825
3683 3724
3683 4130
3683 4921
3684 4138
3685 4086
3685 4445
3686 3722
3686 3735
3686 4173
3686 4594
3686 4833
3687 3789
3687 4002
3687 4195
3687 4231
3687 4847
3687 4951
3687 4998
3688 3748
3688 3963
3688 4014
3688 4052
3688 4650
3689 4095
3689 4378
3690 4712
3691 4709
3691 4742
3691 4754
3691 4795
3692 4424
3692 4466
3693 3794
3693 3991
3693 4132
3693 4304
3693 4349
3693 4862
3693 4949
3694 3897
3694 4087
3694 4298
3694 4807
3695 4643
3696 3737
3697 4093
3697 4311
3697 4616
3697 4703
3697 4974
3698 3724
3698 3774
3698 4099
3698 4469
3698 4562
3698 4812
3699 3751
3699 3820
3699 4958
3700 3817
3700 4804
3701 4218
3701 4518
3701 4664
3701 4744
3702 4301
3702 4792
3703 4323
3704 4104
3704 4594
3705 4203
3705 4745
3706 4057
3706 4089
3706 4383
3706 4661
3706 4842
3706 4964
3707 3744
3707 4036
3707 4102
3707 4471
3707 4619
3707 4668
3707 4674
3707 4846
3708 3874
3708 4006
3708 4193
3709 3798
3709 3814
3709 3817
3709 3927
3709 3968
3709 4192
3709 4334
3709 4689
3709 4697
3709 4792
3709 4867
3709 4913
3710 3889
3710 4015
3710 4049
3710 4177
3711 3863
3711 4086
3711 4649
3711 4701
3711 4768
3711 4999
3712 3793
3712 3973
3712 4415
3712 4935
3712 4959
3713 3893
3713 4087
3713 4615
3714 3721
3714 4610
3715 3740
3715 3875
3715 3896
3715 4238
3715 4266
3715 4490
3715 4605
3715 4727
3715 4784
3716 4489
3716 4629
3717 4327
3717 4602
3717 4781
3718 3878
3718 4637
3718 4998
3719 3840
3719 4199
3719 4382
3719 4813
3720 3864
3720 3991
3720 4483
3720 4996
3721 4202
3721 4247
3721 4281
3721 4308
3721 4472
3721 4564
3721 4573
3721 4652
3722 3735
3722 3817
3722 4173
3722 4413
3722 4515
3722 4522
3722 4734
3722 4820
3722 4955
3723 4495
3724 3913
3725 3915
3725 3959
3726 3762
3726 3799
3726 3803
3726 3892
3726 3944
3726 4118
3726 4124
3726 4177
3726 4224
3726 4763
3726 4875
3727 3749
3727 3813
3727 3858
3727 4052
3727 4794
3727 4800
3727 4853
3727 4907
3728 3885
3728 4752
3728 4794
3728 4822
3729 4252
3729 4429
3729 4813
3730 3840
3730 4709
3730 4776
3731 3845
3731 4101
3731 4258
3732 3814
3732 3836
3732 4651
3732 4749
3732 4789
3733 3868
3733 4183
3733 4412
3733 4617
3734 4282
3734 4606
3734 4727
3734 4943
3735 3859
3735 4173
3735 4375
3735 4459
3735 4522
3736 4704
3737 3870
3737 4072
3737 4392
3737 4488
3737 4535
3737 4558
3737 4653
3738 4841
3738 4926
3739 4217
3739 4563
3739 4989
3740 3998
3740 4490
3740 4755
3741 3769
3741 4580
3741 4654
3741 4754
3742 4607
3742 4849
3742 4993
3743 3807
3743 3979
3743 4044
3743 4223
3743 4234
3743 4627
3743 4651
3743 4715
3743 4890
3743 4897
3744 3908
3744 4471
3744 4668
3744 4674
3744 4735
3745 3747
3745 4592
3746 4086
3746 4174
3746 4435
3746 4578
3746 4990
3747 4311
3747 4592
3747 4741
3747 4875
3748 3803
3748 4052
3748 4359
3748 4467
3748 4831
3749 4907
3750 4263
3750 4964
3750 4993
3751 3947
3751 4054
3751 4835
3751 4872
3751 4958
3752 4318
3752 4507
3752 4519
3752 4652
3752 4794
3752 4921
3753 3872
3753 4572
3753 4954
3754 3992
3754 4285
3754 4668
3754 4987
3755 3772
3755 3821
3755 4847
3756 4620
3756 4864
3757 3820
3758 4260
3759 4748
3760 4663
3761 4169
3761 4781
3762 3837
3762 4470
3762 4567
3763 4228
3764 4045
3764 4854
3765 4379
3766 4239
3766 4457
3766 4562
3767 3830
3767 4205
3767 4274
3767 4292
3767 4463
3767 4549
3767 4733
3767 4976
3768 4116
3768 4525
3769 3829
3770 3779
3770 3870
3770 4018
3770 4775
3771 3850
3771 4230
3771 4489
3771 4581
3771 4629
3771 4720
3771 4866
3772 4416
3772 4680
3772 4775
3772 4787
3772 4989
3773 3788
3773 3922
3773 4268
3773 4398
3774 3852
3774 3935
3774 4812
3775 3867
3775 4093
3775 4162
3775 4391
3775 4638
3775 4748
3776 4555
3776 4704
3777 4103
3777 4390
3777 4401
3778 3875
3778 3921
3778 4161
3778 4362
3778 4707
3779 4344
3780 3804
3780 4036
3780 4127
3780 4468
3780 4809
3780 4913
3781 3882
3781 4235
3781 4405
3781 4859
3782 3790
3782 3912
3782 4678
3782 4692
3782 4741
3783 4703
3783 4913
3783 4954
3783 4983
3784 3947
3784 4068
3784 4479
3785 4180
3785 4533
3786 4465
3786 4676
3786 4699
3786 4948
3787 3896
3787 4579
3788 4150
3788 4268
3788 4628
3788 4981
3789 3807
3789 4473
3789 4812
3789 4864
3790 3878
3790 3931
3790 4394
3790 4591
3790 4610
3790 4623
3790 4699
3791 4107
3791 4778
3791 4843
3791 4955
3792 3986
3792 4105
3792 4366
3792 4460
3792 4646
3792 4703
3793 3861
3793 3896
3793 4713
3793 4865
3793 4945
3794 4126
3794 4277
3794 4558
3794 4595
3794 4811
3795 4272
3795 4710
3795 4857
3796 4344
3797 3910
3797 4622
3798 3927
3799 3803
3799 4229
3800 3882
3800 4221
3800 4624
3800 4944
3801 3838
3801 4818
3802 3886
3802 4450
3802 4527
3802 4724
3803 4356
3803 4442
3803 4890
3804 4077
3804 4415
3805 4476
3806 3908
3806 4168
3806 4781
3806 4808
3806 4878
3807 3922
3807 4297
3807 4552
3807 4779
3807 4864
3808 4776
3809 3845
3809 4603
3809 4823
3810 3833
3810 3941
3810 4023
3811 4881
3811 4912
3812 3814
3812 4568
3812 4651
3813 3968
3813 4132
3813 4400
3814 3836
3814 4034
3814 4401
3814 4501
3815 4734
3816 4138
3816 4342
3816 4935
3817 3860
3817 4329
3818 3924
3818 4090
3818 4179
3818 4425
3818 4503
3819 4190
3819 4256
3819 4535
3819 4911
3819 4967
3819 4978
3820 4086
3820 4247
3820 4477
3820 4532
3820 4621
3820 4816
3821 4089
3821 4220
3821 4405
3821 4495
3821 4662
3821 4723
3821 4958
3822 4137
3822 4194
3822 4429
3822 4846
3823 4103
3823 4520
3823 4762
3823 4944
3824 4232
3824 4279
3824 4868
3824 4963
3825 3860
3825 4310
3826 4048
3826 4320
3826 4726
3826 4795
3826 4883
3827 4214
3827 4263
3828 4171
3828 4356
3828 4383
3828 4801
3828 4901
3829 4293
3829 4807
3830 3888
3830 4519
3830 4885
3831 4035
3831 4536
3832 4127
3832 4191
3832 4650
3832 4727
3833 4039
3833 4188
3833 4329
3833 4448
3833 4685
3833 4691
3834 3839
3834 3963
3834 3992
3834 4166
3834 4167
3834 4258
3834 4551
3834 4773
3834 4830
3835 3999
3835 4117
3835 4705
3837 3946
3837 4087
3837 4313
3837 4626
3837 4695
3837 4877
3838 4208
3839 3931
3839 4971
3840 4199
3840 4382
3840 4813
3841 3963
3841 4182
3842 4073
3842 4188
3842 4902
3843 3905
3843 4116
3843 4199
3843 4813
3844 3937
3844 4054
3844 4541
3845 4503
3846 3941
3847 4028
3847 4625
3847 4818
3847 4917
3848 4037
3848 4177
3848 4264
3848 4630
3849 3941
3849 3970
3849 4033
3849 4129
3849 4352
3849 4382
3851 3983
3851 4107
3851 4214
3851 4479
3852 3859
3852 4359
3852 4611
3852 4743
3852 4977
3853 4187
3853 4453
3853 4454
3853 4533
3854 4651
3854 4757
3855 3936
3855 4130
3855 4887
3856 4377
3856 4428
3857 3881
3857 4192
3857 4480
3858 4561
3859 3902
3859 3979
3859 4359
3859 4977
3860 4005
3860 4178
3860 4693
3860 4837
3860 4919
3861 4497
3862 4097
3862 4383
3863 4018
3863 4701
3863 4768
3863 4949
3864 3910
3864 3957
3864 3977
3864 3991
3864 4254
3864 4431
3864 4483
3864 4816
3864 4996
3865 4272
3865 4638
3866 4225
3866 4245
3866 4524
3866 4987
3867 4022
3867 4048
3867 4173
3867 4366
3867 4726
3868 4703
3869 3918
3869 4259
3870 3883
3870 4287
3870 4417
3870 4441
3870 4985
3872 4703
3872 4954
3873 3924
3873 4063
3873 4124
3873 4212
3873 4433
3873 4459
3873 4658
3873 4989
3874 4193
3874 4669
3875 4653
3875 4801
3876 3997
3876 4061
3876 4354
3876 4392
3876 4568
3876 4624
3876 4887
3876 4934
3877 4152
3877 4895
3878 4188
3878 4430
3878 4437
3878 4777
3879 4114
3879 4121
3879 4927
3880 4078
3880 4448
3880 4505
3881 3899
3881 4781
3881 4791
3882 4221
3882 4409
3882 4480
3882 4624
3882 4696
3882 4733
3882 4820
3883 4133
3883 4163
3883 4237
3883 4445
3883 4659
3883 4680
3884 4126
3885 4679
3886 4460
3886 4484
3887 3924
3887 4913
3887 4997
3888 4097
3888 4210
3888 4322
3888 4942
3889 4290
3889 4540
3889 4600
3889 4684
3889 4955
3890 4195
3890 4435
3890 4465
3891 3898
3891 3911
3891 4737
3891 4743
3892 3998
3892 4007
3894 4046
3894 4476
3894 4734
3896 3897
3896 3916
3896 4177
3896 4426
3897 4205
3897 4435
3897 4954
3898 4631
3899 4773
3899 4980
3900 4443
3900 4635
3901 4744
3902 4718
3903 4229
3903 4871
3904 4386
3904 4644
3904 4741
3905 4539
3905 4751
3905 4956
3906 4829
3907 4248
3907 4581
3908 3947
3908 3996
3908 4024
3908 4797
3908 4805
3908 4861
3908 4874
3909 3967
3909 4971
3909 4974
3910 4355
3910 4622
3911 4302
3911 4571
3911 4627
3912 4051
3912 4300
3912 4637
3912 4957
3913 4192
3913 4335
3913 4356
3913 4422
3913 4593
3913 4604
3913 4656
3913 4740
3913 4914
3913 4917
3913 4997
3914 4343
3914 4402
3914 4416
3915 3959
3916 4019
3916 4092
3916 4734
3917 3980
3917 4580
3917 4758
3918 3978
3918 3983
3918 4346
3918 4444
3918 4765
3918 4996
3919 4295
3919 4524
3920 4244
3920 4611
3920 4970
3921 4161
3921 4707
3922 4061
3922 4297
3923 4087
3924 3944
3924 4288
3925 4061
3925 4198
3925 4277
3925 4297
3925 4741
3926 4057
3926 4483
3926 4661
3927 4583
3927 4689
3927 4765
3927 4792
3928 4064
3928 4445
3928 4800
3929 4425
3929 4621
3929 4792
3929 4901
3930 4759
3931 4290
3931 4772
3931 4861
3931 4881
3932 4050
3932 4166
3932 4204
3932 4927
3933 4513
3933 4949
3934 4391
3934 4453
3935 4339
3935 4383
3935 4541
3935 4922
3935 4951
3936 4004
3936 4602
3937 4541
3938 3990
3938 4397
3939 4262
3939 4358
3940 4245
3940 4820
3941 4230
3941 4336
3941 4689
3943 4402
3943 4952
3945 4807
3946 4301
3946 4368
3946 4651
3946 4696
3946 4945
3947 4068
3947 4311
3947 4479
3947 4532
3948 4015
3948 4618
3948 4885
3949 4277
3949 4385
3949 4392
3949 4424
3949 4617
3951 4237
3951 4332
3951 4885
3951 4992
3952 4055
3952 4461
3952 4531
3953 4096
3953 4145
3953 4781
3953 4867
3954 4939
3954 4982
3955 4458
3955 4781
3955 4963
3956 4166
3956 4224
3956 4745
3957 4483
3958 4180
3958 4312
3959 4177
3959 4627
3960 4096
3960 4145
3960 4159
3960 4678
3961 4131
3961 4237
3961 4691
3962 3963
3962 4328
3963 4050
3963 4182
3963 4569
3963 4821
3964 4526
3965 4365
3965 4600
3965 4755
3966 3975
3966 4678
3966 4721
3967 4122
3967 4547
3967 4913
3967 4949
3967 4971
3969 4267
3969 4491
3969 4641
3970 4716
3970 4836
3971 4013
3971 4127
3971 4141
3971 4712
3972 4320
3972 4749
3972 4754
3973 4218
3973 4472
3973 4559
3973 4959
3974 4215
3974 4301
3974 4540
3974 4667
3974 4674
3975 4165
3975 4642
3975 4678
3975 4683
3975 4721
3976 4494
3977 4120
3977 4369
3977 4444
3977 4633
3977 4772
3977 4952
3978 4192
3978 4346
3978 4691
3979 4114
3979 4673
3979 4782
3979 4877
3980 4580
3981 4619
3981 4806
3982 4214
3982 4464
3982 4585
3983 4185
3984 4350
3984 4740
3984 4789
3984 4844
3985 4366
3985 4863
3985 4938
3986 4703
3986 4875
3987 4538
3988 4208
3988 4788
3988 4812
3989 4670
3989 4890
3990 4000
3990 4225
3990 4262
3990 4397
3991 4314
3992 4263
3993 4390
3994 4129
3994 4503
3995 4087
3995 4599
3995 4948
3996 4024
3996 4258
3996 4461
3996 4689
3996 4797
3996 4801
3996 4861
3997 4593
3999 4705
4000 4116
4000 4397
4000 4644
4001 4046
4001 4162
4001 4504
4001 4594
4001 4910
4003 4650
4004 4203
4004 4544
4004 4602
4005 4255
4005 4414
4005 4674
4005 4837
4006 4757
4007 4503
4008 4084
4008 4418
4008 4729
4008 4970
4009 4045
4009 4082
4009 4324
4011 4175
4011 4207
4012 4188
4013 4368
4013 4527
4013 4531
4013 4623
4013 4684
4014 4240
4014 4391
4014 4706
4014 4896
4015 4130
4015 4764
4016 4250
4016 4417
4016 4469
4017 4580
4017 4758
4017 4844
4018 4390
4018 4620
4019 4222
4019 4410
4019 4620
4019 4849
4020 4980
4021 4118
4021 4326
4022 4405
4023 4928
4023 4955
4024 4419
4024 4757
4024 4797
4024 4874
4024 4957
4025 4028
4025 4094
4025 4134
4025 4284
4025 4775
4026 4146
4026 4164
4026 4400
4026 4913
4027 4092
4027 4152
4027 4749
4028 4030
4029 4124
4029 4219
4029 4252
4029 4918
4030 4179
4030 4969
4031 4195
4031 4417
4031 4640
4032 4159
4032 4845
4033 4075
4034 4066
4034 4077
4034 4098
4034 4257
4034 4534
4034 4609
4034 4992
4035 4536
4035 4902
4036 4299
4036 4778
4036 4865
4037 4251
4038 4387
4038 4762
4038 4885
4039 4118
4039 4437
4039 4832
4040 4041
4040 4323
4040 4560
4040 4600
4041 4286
4041 4455
4041 4483
4041 4816
4042 4088
4042 4479
4042 4860
4043 4848
4043 4861
4044 4223
4044 4692
4044 4890
4045 4147
4045 4219
4045 4345
4046 4153
4046 4162
4046 4170
4046 4263
4046 4504
4046 4813
4046 4817
4046 4997
4047 4826
4048 4234
4048 4284
4048 4366
4048 4700
4048 4726
4048 4846
4050 4182
4050 4531
4050 4797
4052 4379
4053 4527
4053 4998
4054 4451
4054 4931
4055 4166
4055 4360
4055 4461
4056 4129
4056 4187
4056 4602
4056 4670
4056 4698
4056 4801
4057 4112
4057 4215
4057 4661
4058 4106
4058 4146
4058 4393
4058 4606
4058 4740
4058 4896
4059 4352
4059 4528
4059 4544
4060 4257
4060 4526
4060 4794
4060 4882
4061 4070
4061 4198
4061 4447
4061 4466
4061 4733
4061 4949
4062 4875
4064 4090
4064 4484
4064 4633
4064 4870
4065 4316
4065 4876
4066 4257
4066 4453
4066 4607
4066 4992
4067 4201
4067 4375
4067 4405
4067 4514
4067 4600
4068 4479
4068 4532
4069 4964
4070 4243
4070 4607
4070 4805
4071 4192
4071 4866
4073 4175
4073 4573
4073 4789
4073 4855
4074 4237
4074 4296
4074 4474
4074 4984
4075 4724
4076 4686
4076 4699
4077 4609
4077 4992
4079 4419
4079 4596
4080 4474
4081 4092
4081 4205
4081 4266
4081 4312
4081 4383
4081 4457
4081 4850
4082 4324
4083 4128
4083 4240
4083 4511
4083 4746
4084 4169
4085 4113
4085 4238
4085 4420
4086 4149
4086 4445
4086 4531
4086 4604
4086 4659
4086 4761
4087 4298
4087 4313
4088 4659
4088 4772
4090 4879
4091 4094
4091 4650
4091 4705
4091 4727
4091 4821
4092 4378
4092 4968
4093 4951
4095 4271
4095 4378
4096 4145
4096 4803
4097 4508
4098 4178
4098 4577
4098 4845
4099 4562
4099 4812
4100 4188
4100 4224
4100 4552
4100 4635
4100 4777
4102 4471
4102 4950
4103 4724
4103 4741
4103 4838
4103 4923
4104 4132
4104 4680
4104 4791
4105 4425
4105 4511
4106 4146
4106 4316
4106 4606
4106 4707
4106 4857
4107 4185
4107 4909
4108 4358
4108 4589
4109 4471
4109 4643
4109 4771
4110 4675
4111 4117
4112 4683
4113 4189
4113 4263
4113 4420
4113 4588
4114 4607
4114 4673
4114 4760
4114 4782
4114 4877
4115 4386
4116 4367
4116 4482
4116 4766
4116 4820
4116 4876
4117 4538
4118 4437
4118 4890
4119 4558
4119 4811
4120 4369
4120 4633
4120 4671
4120 4735
4120 4952
4121 4601
4121 4859
4122 4748
4122 4808
4122 4940
4123 4216
4123 4371
4124 4541
4126 4607
4127 4224
4127 4331
4127 4380
4127 4423
4127 4573
4127 4894
4127 4915
4128 4138
4128 4217
4128 4240
4128 4516
4128 4746
4129 4988
4130 4273
4130 4925
4130 4984
4131 4137
4131 4168
4131 4237
4131 4525
4131 4553
4131 4662
4131 4691
4131 4750
4132 4625
4132 4949
4133 4163
4133 4445
4133 4659
4133 4761
4134 4255
4134 4596
4134 4775
4134 4898
4134 4975
4135 4593
4135 4715
4135 4733
4136 4172
4136 4523
4136 4775
4136 4958
4137 4221
4137 4249
4137 4429
4137 4439
4137 4930
4138 4537
4138 4760
4138 4891
4139 4253
4139 4647
4139 4747
4140 4159
4140 4214
4140 4439
4140 4801
4142 4269
4142 4709
4142 4776
4144 4800
4145 4949
4146 4560
4146 4602
4146 4606
4146 4740
4147 4466
4147 4487
4147 4925
4149 4422
4149 4659
4149 4704
4150 4166
4150 4170
4150 4416
4150 4505
4150 4660
4151 4578
4151 4687
4151 4765
4152 4345
4153 4244
4153 4872
4154 4486
4154 4621
4154 4901
4155 4574
4156 4222
4156 4283
4156 4286
4156 4751
4156 4961
4157 4410
4159 4184
4159 4331
4159 4421
4159 4655
4159 4863
4160 4212
4160 4492
4160 4627
4160 4815
4161 4655
4161 4707
4162 4395
4162 4504
4162 4722
4163 4722
4163 4750
4164 4436
4164 4830
4164 4867
4165 4225
4165 4586
4165 4731
4166 4305
4166 4422
4166 4449
4166 4827
4166 4837
4166 4927
4166 4974
4167 4551
4168 4237
4168 4691
4169 4845
4170 4195
4170 4204
4170 4288
4170 4440
4170 4593
4170 4894
4171 4310
4173 4333
4173 4522
4174 4913
4175 4656
4176 4275
4176 4821
4176 4947
4176 4975
4177 4325
4177 4346
4177 4624
4177 4745
4177 4889
4178 4742
4178 4753
4178 4943
4179 4514
4179 4788
4179 4902
4180 4314
4180 4540
4180 4767
4182 4619
4183 4261
4184 4485
4184 4993
4185 4633
4185 4909
4186 4773
4186 4795
4187 4504
4187 4811
4188 4309
4188 4510
4188 4940
4189 4192
4189 4427
4189 4436
4189 4473
4189 4481
4189 4956
4190 4196
4190 4388
4190 4856
4190 4911
4191 4760
4191 4861
4191 4927
4191 4978
4192 4513
4192 4606
4192 4713
4192 4914
4192 4930
4192 4932
4192 4997
4193 4398
4194 4429
4195 4509
4195 4618
4196 4326
4196 4737
4197 4804
4198 4829
4199 4382
4199 4479
4199 4813
4199 4850
4200 4528
4200 4538
4202 4818
4202 4917
4203 4242
4203 4845
4204 4288
4204 4415
4204 4440
4204 4593
4204 4722
4204 4729
4204 4936
4205 4441
4205 4858
4205 4965
4206 4913
4206 4983
4207 4476
4207 4512
4208 4239
4208 4243
4208 4977
4209 4618
4209 4623
4210 4322
4210 4413
4210 4824
4210 4875
4211 4500
4212 4344
4212 4551
4212 4782
4213 4790
4216 4879
4217 4302
4217 4607
4217 4969
4218 4264
4218 4296
4218 4342
4218 4949
4221 4409
4221 4624
4223 4588
4223 4885
4223 4890
4223 4897
4223 4940
4225 4341
4225 4610
4226 4333
4226 4510
4227 4886
4228 4250
4228 4289
4230 4629
4230 4672
4231 4553
4231 4766
4231 4995
4232 4296
4232 4594
4232 4916
4234 4417
4235 4325
4235 4378
4235 4595
4235 4629
4235 4756
4235 4859
4235 4945
4236 4387
4236 4885
4237 4239
4237 4429
4237 4483
4237 4662
4237 4691
4238 4618
4238 4809
4239 4287
4239 4328
4239 4505
4239 4867
4240 4440
4240 4541
4240 4659
4240 4746
4240 4776
4241 4475
4241 4774
4243 4290
4243 4342
4243 4404
4244 4729
4244 4867
4245 4423
4245 4524
4245 4598
4245 4727
4246 4388
4246 4710
4246 4711
4247 4309
4247 4319
4248 4276
4248 4581
4249 4849
4250 4525
4250 4752
4251 4299
4253 4333
4253 4987
4254 4320
4255 4333
4255 4512
4255 4775
4256 4821
4256 4856
4257 4318
4257 4393
4257 4609
4257 4992
4258 4553
4258 4722
4258 4736
4258 4900
4258 4976
4258 4978
4259 4395
4259 4527
4259 4993
4261 4938
4261 4969
4262 4358
4263 4351
4263 4783
4264 4731
4264 4862
4265 4380
4265 4525
4265 4732
4266 4405
4266 4490
4267 4491
4268 4398
4268 4510
4268 4628
4268 4981
4268 4993
4269 4916
4270 4343
4270 4479
4270 4528
4270 4625
4270 4719
4271 4702
4272 4718
4272 4950
4273 4614
4273 4692
4273 4697
4273 4727
4273 4839
4274 4363
4274 4626
4274 4774
4274 4828
4274 4958
4275 4583
4275 4704
4275 4757
4276 4291
4276 4441
4277 4462
4278 4302
4279 4868
4279 4963
4280 4578
4280 4929
4281 4308
4281 4449
4281 4472
4281 4573
4281 4652
4281 4727
4282 4500
4283 4369
4283 4455
4283 4751
4283 4902
4283 4966
4284 4865
4285 4462
4285 4808
4285 4987
4286 4455
4287 4417
4288 4456
4288 4593
4289 4864
4289 4989
4290 4436
4290 4446
4291 4334
4291 4686
4291 4804
4292 4502
4292 4549
4292 4878
4293 4464
4293 4612
4294 4422
4294 4554
4296 4486
4296 4540
4296 4545
4296 4916
4296 4989
4298 4313
4299 4943
4300 4834
4300 4957
4302 4486
4302 4783
4302 4836
4302 4863
4302 4953
4303 4703
4304 4372
4304 4673
4305 4659
4305 4781
4306 4501
4306 4639
4306 4870
4307 4719
4307 4958
4308 4472
4308 4490
4308 4573
4308 4652
4308 4689
4308 4723
4308 4807
4309 4432
4309 4481
4309 4733
4310 4439
4311 4974
4312 4950
4315 4806
4316 4323
4317 4491
4317 4631
4317 4805
4318 4794
4318 4921
4319 4689
4320 4749
4320 4832
4321 4856
4322 4413
4322 4573
4322 4824
4323 4391
4323 4488
4323 4721
4323 4956
4324 4460
4324 4519
4325 4904
4326 4392
4326 4592
4326 4596
4326 4698
4327 4861
4327 4876
4328 4690
4329 4398
4329 4408
4329 4448
4329 4481
4329 4685
4329 4710
4330 4660
4330 4840
4331 4655
4331 4863
4332 4680
4332 4791
4333 4337
4333 4421
4333 4437
4333 4468
4333 4478
4333 4622
4333 4646
4333 4771
4334 4600
4334 4798
4336 4707
4336 4746
4336 4905
4337 4628
4338 4518
4339 4341
4339 4707
4339 4922
4340 4582
4341 4835
4341 4922
4342 4597
4342 4935
4344 4441
4344 4470
4344 4519
4344 4946
4345 4362
4345 4525
4345 4554
4345 4712
4345 4882
4346 4489
4346 4748
4346 4841
4347 4410
4347 4684
4347 4784
4349 4949
4350 4843
4351 4735
4352 4671
4352 4761
4353 4855
4354 4502
4354 4637
4355 4520
4355 4628
4355 4762
4356 4383
4356 4582
4356 4945
4357 4377
4357 4690
4357 4954
4358 4958
4360 4930
4361 4564
4361 4775
4361 4905
4362 4418
4362 4712
4362 4953
4363 4774
4363 4779
4363 4828
4364 4555
4364 4967
4365 4719
4365 4819
4366 4518
4366 4700
4366 4795
4367 4482
4367 4766
4368 4527
4369 4952
4370 4866
4372 4452
4373 4636
4373 4770
4373 4786
4374 4764
4374 4887
4374 4992
4375 4423
4375 4441
4375 4456
4375 4514
4375 4812
4376 4479
4376 4618
4376 4677
4376 4875
4376 4987
4377 4757
4377 4811
4378 4540
4378 4650
4380 4894
4381 4447
4381 4963
4382 4813
4382 4993
4383 4945
4385 4424
4385 4961
4387 4394
4387 4885
4388 4457
4389 4548
4389 4593
4389 4730
4393 4450
4393 4631
4393 4795
4393 4970
4394 4533
4394 4818
4395 4396
4396 4472
4396 4739
4397 4989
4398 4628
4398 4981
4399 4737
4400 4556
4401 4449
4402 4457
4403 4525
4403 4845
4404 4484
4404 4802
4404 4859
4405 4646
4405 4744
4405 4960
4405 4975
4407 4568
4408 4454
4408 4855
4409 4454
4409 4624
4409 4641
4409 4878
4409 4989
4410 4518
4410 4577
4411 4536
4412 4525
4412 4804
4413 4942
4416 4787
4416 4989
4416 4994
4417 4985
4418 4529
4419 4916
4420 4884
4421 4478
4421 4591
4422 4490
4422 4955
4422 4956
4423 4598
4425 4511
4426 4993
4428 4432
4428 4519
4428 4636
4429 4639
4429 4765
4431 4506
4431 4605
4431 4648
4431 4846
4432 4741
4434 4858
4435 4620
4436 4446
4436 4522
4436 4565
4436 4910
4437 4832
4438 4703
4439 4832
4440 4593
4440 4917
4441 4450
4441 4627
4441 4916
4442 4498
4442 4679
4442 4850
4442 4986
4444 4500
4445 4485
4445 4736
4445 4761
4447 4534
4447 4680
4447 4921
4447 4938
4448 4470
4449 4487
4450 4743
4450 4842
4450 4954
4452 4869
4453 4496
4453 4596
4455 4488
4455 4949
4457 4646
4458 4550
4458 4878
4459 4741
4460 4646
4460 4703
4460 4715
4461 4812
4462 4913
4463 4549
4463 4723
4465 4812
4466 4802
4467 4547
4468 4821
4469 4551
4470 4711
4471 4668
4471 4674
4472 4573
4472 4652
4473 4516
4473 4782
4475 4999
4476 4869
4477 4816
4479 4532
4482 4611
4482 4766
4482 4808
4483 4636
4483 4933
4483 4996
4485 4524
4485 4822
4486 4993
4487 4680
4487 4695
4487 4830
4487 4847
4488 4726
4489 4545
4489 4629
4489 4719
4491 4641
4493 4732
4493 4868
4496 4587
4496 4803
4497 4754
4497 4939
4497 4982
4498 4679
4499 4963
4501 4543
4502 4637
4502 4647
4503 4624
4505 4660
4507 4680
4507 4794
4507 4921
4510 4621
4512 4948
4512 4962
4514 4791
4514 4996
4515 4557
4515 4639
4516 4570
4516 4600
4517 4563
4518 4744
4518 4794
4519 4588
4520 4762
4520 4944
4522 4644
4523 4636
4524 4598
4524 4626
4525 4840
4525 4847
4525 4979
4526 4646
4526 4771
4527 4531
4527 4774
4527 4801
4527 4819
4528 4544
4528 4790
4530 4567
4531 4533
4533 4692
4533 4899
4533 4981
4533 4986
4536 4600
4536 4698
4536 4965
4541 4767
4541 4922
4542 4993
4543 4639
4543 4796
4545 4916
4547 4623
4550 4670
4550 4715
4550 4844
4551 4624
4551 4712
4551 4773
4551 4830
4552 4635
4552 4777
4554 4712
4554 4873
4554 4953
4556 4783
4556 4792
4556 4970
4557 4788
4557 4971
4558 4623
4558 4811
4558 4953
4560 4744
4560 4791
4562 4812
4563 4769
4564 4604
4564 4635
4565 4678
4565 4683
4565 4721
4566 4576
4567 4768
4567 4799
4568 4654
4569 4671
4569 4804
4572 4782
4573 4652
4573 4921
4573 4930
4576 4678
4576 4691
4577 4719
4577 4771
4578 4678
4578 4765
4579 4714
4579 4774
4580 4604
4580 4758
4583 4879
4583 4880
4584 4704
4584 4836
4587 4687
4587 4928
4588 4707
4589 4658
4589 4855
4589 4890
4589 4928
4590 4789
4590 4798
4592 4805
4596 4867
4597 4880
4597 4935
4600 4755
4601 4744
4604 4749
4605 4846
4606 4740
4606 4798
4606 4847
4607 4689
4607 4849
4608 4812
4609 4807
4609 4992
4611 4626
4611 4970
4613 4749
4613 4764
4614 4775
4615 4698
4615 4778
4615 4862
4618 4831
4618 4878
4618 4909
4619 4806
4619 4983
4621 4901
4622 4775
4626 4682
4626 4803
4626 4893
4626 4929
4626 4968
4629 4719
4631 4773
4631 4795
4633 4952
4635 4777
4636 4962
4637 4647
4637 4720
4638 4834
4638 4902
4639 4897
4643 4860
4645 4691
4645 4727
4645 4827
4646 4703
4647 4842
4647 4934
4649 4746
4649 4989
4650 4821
4650 4861
4651 4669
4651 4888
4652 4821
4655 4863
4656 4838
4659 4761
4660 4746
4663 4705
4664 4937
4665 4674
4666 4771
4666 4856
4666 4916
4667 4769
4667 4936
4667 4960
4668 4727
4668 4782
4669 4993
4670 4804
4672 4777
4673 4689
4673 4782
4673 4923
4674 4999
4678 4721
4679 4705
4679 4740
4679 4873
4680 4791
4680 4823
4682 4891
4683 4721
4684 4861
4686 4804
4688 4793
4688 4991
4689 4792
4690 4811
4690 4990
4691 4703
4691 4835
4691 4838
4691 4933
4692 4697
4692 4900
4694 4733
4695 4847
4695 4893
4696 4794
4698 4778
4700 4726
4701 4768
4701 4999
4702 4803
4702 4849
4702 4899
4702 4942
4703 4714
4703 4753
4703 4940
4703 4971
4704 4901
4706 4896
4708 4747
4709 4776
4711 4946
4715 4733
4721 4851
4725 4765
4727 4821
4728 4872
4728 4879
4729 4815
4729 4867
4732 4739
4738 4784
4738 4850
4739 4789
4741 4835
4742 4809
4747 4847
4747 4984
4750 4973
4753 4860
4754 4937
4755 4921
4758 4844
4758 4877
4760 4861
4760 4978
4761 4914
4762 4920
4762 4944
4762 4945
4764 4941
4768 4999
4771 4979
4773 4795
4777 4911
4778 4862
4781 4811
4782 4877
4782 4922
4787 4989
4788 4809
4794 4921
4796 4921
4796 4926
4797 4874
4798 4903
4800 4812
4801 4823
4803 4968
4812 4912
4813 4992
4815 4885
4815 4936
4815 4995
4817 4976
4818 4917
4824 4942
4826 4860
4828 4842
4829 4989
4840 4847
4841 4854
4841 4926
4842 4847
4843 4980
4844 4989
4847 4875
4847 4921
4854 4926
4856 4911
4860 4989
4861 4978
4861 4981
4884 4943
4885 4992
4886 4889
4890 4897
4893 4895
4906 4980
4908 4991
4910 4956
4911 4967
4913 4983
4914 4997
4916 4992
4920 4956
4932 4936
4933 4944
4943 4984
4970 4978
4987 4991
