# LFR-like benchmark
# Nodes: 1000, Edges: 11499, Communities: 99
0 99
0 180
0 265
0 283
0 325
0 333
0 340
0 426
0 458
0 496
0 547
0 548
0 680
0 695
0 774
0 824
0 856
0 956
0 986
0 998
1 102
1 127
1 150
1 209
1 267
1 314
1 556
1 694
1 786
1 800
1 848
1 856
1 871
1 884
1 937
2 98
2 120
2 133
2 148
2 202
2 216
2 283
2 531
2 583
2 697
2 707
2 721
2 792
2 845
2 879
2 899
2 968
3 24
3 28
3 112
3 141
3 352
3 369
3 450
3 590
3 636
3 708
3 791
3 839
3 863
3 865
3 935
3 973
4 28
4 57
4 83
4 106
4 198
4 199
4 235
4 242
4 250
4 285
4 398
4 429
4 475
4 520
4 542
4 552
4 662
4 694
4 697
4 762
4 777
4 792
4 862
4 936
4 942
5 6
5 63
5 141
5 163
5 233
5 270
5 418
5 474
5 485
5 547
5 567
5 600
5 617
5 638
5 701
5 703
5 711
5 728
5 735
5 797
5 850
5 949
5 959
5 986
5 997
6 10
6 38
6 39
6 49
6 71
6 146
6 182
6 183
6 185
6 194
6 243
6 300
6 309
6 316
6 388
6 410
6 413
6 434
6 514
6 526
6 579
6 589
6 724
6 774
6 815
6 846
6 853
6 866
6 867
6 903
6 907
6 913
6 945
6 951
6 953
6 958
6 966
6 969
6 995
6 998
7 56
7 140
7 209
7 297
7 315
7 349
7 433
7 790
7 849
7 941
7 960
8 103
8 187
8 255
8 299
8 305
8 319
8 350
8 443
8 542
8 562
8 662
8 663
8 689
8 740
8 854
8 985
9 51
9 103
9 127
9 131
9 139
9 186
9 201
9 236
9 289
9 301
9 321
9 361
9 582
9 814
9 882
9 919
9 922
9 952
9 971
10 182
10 199
10 201
10 280
10 283
10 443
10 487
10 599
10 701
10 724
10 754
10 832
10 841
10 848
10 883
10 952
10 962
11 28
11 154
11 170
11 214
11 249
11 250
11 268
11 314
11 421
11 429
11 443
11 475
11 504
11 672
11 744
11 747
11 757
11 760
11 902
11 907
11 946
12 15
12 109
12 110
12 120
12 173
12 299
12 320
12 349
12 442
12 486
12 514
12 663
12 763
12 765
12 877
12 901
12 943
12 952
13 197
13 202
13 229
13 443
13 492
13 540
13 587
13 637
13 697
13 777
13 782
13 854
13 859
13 977
14 114
14 163
14 346
14 365
14 421
14 440
14 464
14 546
14 595
14 632
14 661
14 671
14 741
14 764
14 830
14 856
14 886
14 928
14 935
15 90
15 99
15 112
15 134
15 194
15 199
15 319
15 321
15 340
15 356
15 366
15 416
15 676
15 692
15 765
15 817
15 916
15 942
16 53
16 331
16 337
16 403
16 430
16 457
16 487
16 494
16 631
16 697
16 763
16 874
16 938
16 959
16 968
16 969
17 64
17 111
17 246
17 272
17 278
17 354
17 398
17 463
17 474
17 535
17 541
17 646
17 779
17 899
18 64
18 122
18 164
18 219
18 243
18 317
18 371
18 419
18 480
18 518
18 558
18 638
18 667
18 688
18 707
18 725
18 754
18 758
18 774
18 777
18 792
18 797
18 855
18 918
18 925
18 954
18 957
19 123
19 200
19 319
19 326
19 350
19 449
19 462
19 512
19 571
19 662
19 685
19 686
19 693
19 715
19 818
20 72
20 152
20 159
20 186
20 255
20 299
20 304
20 387
20 430
20 444
20 472
20 489
20 557
20 569
20 576
20 628
20 640
20 689
20 727
20 774
20 776
20 784
20 830
20 943
20 989
21 81
21 116
21 128
21 146
21 376
21 463
21 544
21 546
21 578
21 584
21 611
21 701
21 728
21 854
21 877
21 878
21 948
21 956
21 976
22 24
22 182
22 199
22 200
22 319
22 334
22 351
22 443
22 567
22 568
22 582
22 624
22 640
22 857
22 883
22 934
22 948
22 979
23 133
23 148
23 209
23 300
23 401
23 432
23 555
23 592
23 666
23 706
23 807
23 820
23 863
23 928
23 949
24 32
24 34
24 48
24 61
24 63
24 67
24 72
24 76
24 81
24 127
24 186
24 225
24 234
24 263
24 296
24 318
24 319
24 327
24 357
24 386
24 410
24 423
24 430
24 438
24 472
24 478
24 488
24 559
24 577
24 582
24 590
24 598
24 694
24 723
24 746
24 769
24 770
24 832
24 842
24 850
24 884
24 898
24 899
24 911
24 925
24 966
24 967
25 28
25 76
25 227
25 239
25 367
25 393
25 403
25 456
25 522
25 661
25 689
25 753
25 791
25 838
25 937
25 946
25 998
26 112
26 164
26 193
26 309
26 355
26 389
26 397
26 614
26 680
26 900
26 922
26 942
26 946
27 64
27 439
27 531
27 557
27 640
27 692
27 830
27 898
27 930
27 937
27 948
27 994
28 45
28 109
28 134
28 143
28 186
28 232
28 250
28 286
28 310
28 407
28 421
28 440
28 480
28 550
28 559
28 564
28 566
28 573
28 666
28 698
28 745
28 754
28 783
28 864
28 946
28 994
29 83
29 159
29 211
29 237
29 255
29 273
29 358
29 475
29 541
29 546
29 570
29 616
29 623
29 693
29 852
29 940
29 969
30 35
30 51
30 60
30 70
30 105
30 127
30 143
30 215
30 250
30 254
30 388
30 461
30 503
30 554
30 557
30 598
30 616
30 620
30 643
30 676
30 697
30 724
30 729
30 767
30 855
30 900
30 903
30 949
30 950
31 58
31 132
31 133
31 144
31 182
31 223
31 240
31 308
31 352
31 354
31 410
31 411
31 520
31 533
31 558
31 700
31 780
31 802
31 893
31 952
32 255
32 319
32 327
32 331
32 390
32 484
32 558
32 595
32 597
32 755
32 841
32 898
32 899
32 902
32 926
32 948
33 49
33 59
33 60
33 61
33 91
33 95
33 126
33 141
33 150
33 153
33 158
33 182
33 194
33 208
33 237
33 251
33 252
33 255
33 298
33 318
33 322
33 338
33 350
33 356
33 365
33 373
33 399
33 404
33 409
33 433
33 441
33 452
33 489
33 493
33 499
33 522
33 545
33 553
33 566
33 585
33 591
33 615
33 618
33 676
33 699
33 707
33 715
33 733
33 744
33 779
33 793
33 825
33 846
33 890
33 899
33 942
33 957
33 985
33 990
34 48
34 161
34 259
34 268
34 281
34 320
34 327
34 431
34 433
34 485
34 540
34 549
34 578
34 674
35 81
35 170
35 182
35 210
35 250
35 263
35 310
35 312
35 333
35 342
35 426
35 448
35 669
35 760
35 803
35 824
35 897
36 41
36 48
36 76
36 135
36 160
36 195
36 278
36 282
36 324
36 391
36 437
36 560
36 582
36 584
36 607
36 608
36 624
36 626
36 682
36 695
36 697
36 749
36 781
36 787
36 811
36 832
36 845
36 903
36 914
36 972
37 74
37 124
37 216
37 314
37 344
37 373
37 388
37 397
37 457
37 461
37 494
37 573
37 652
37 662
37 665
37 826
37 827
37 899
37 937
38 102
38 175
38 247
38 256
38 269
38 291
38 293
38 318
38 332
38 334
38 370
38 371
38 377
38 393
38 433
38 475
38 482
38 514
38 530
38 551
38 570
38 643
38 656
38 670
38 701
38 769
38 800
38 806
38 830
38 856
38 889
38 911
38 913
38 947
39 47
39 177
39 193
39 200
39 211
39 232
39 243
39 267
39 324
39 383
39 415
39 428
39 441
39 458
39 737
39 754
39 778
39 946
40 157
40 199
40 202
40 233
40 264
40 271
40 306
40 372
40 432
40 448
40 453
40 535
40 575
40 602
40 607
40 659
40 747
40 751
40 769
40 855
40 920
40 924
40 967
41 114
41 163
41 240
41 342
41 361
41 365
41 394
41 485
41 521
41 551
41 608
41 671
41 675
41 741
41 830
41 851
41 870
41 914
42 92
42 112
42 232
42 259
42 516
42 568
42 594
42 601
42 653
42 678
42 694
42 712
42 732
42 790
42 856
42 860
42 983
43 170
43 267
43 321
43 340
43 360
43 446
43 512
43 545
43 572
43 684
43 790
43 843
43 851
43 921
44 111
44 133
44 241
44 259
44 295
44 369
44 607
44 664
44 724
44 748
44 765
44 999
45 80
45 127
45 167
45 176
45 346
45 398
45 477
45 485
45 518
45 542
45 603
45 710
45 721
45 759
45 862
45 909
46 145
46 175
46 217
46 315
46 327
46 478
46 498
46 564
46 630
46 632
46 679
46 688
46 722
46 746
46 754
46 910
47 57
47 120
47 127
47 192
47 469
47 505
47 531
47 554
47 726
47 824
47 855
47 863
47 948
48 78
48 123
48 213
48 302
48 541
48 584
48 630
48 652
48 670
48 761
48 811
48 868
48 876
48 914
48 955
48 977
49 109
49 120
49 220
49 426
49 428
49 496
49 514
49 515
49 568
49 588
49 619
49 710
49 762
49 791
49 856
49 910
49 943
50 83
50 132
50 239
50 319
50 362
50 374
50 453
50 595
50 652
50 677
50 753
50 872
50 970
51 128
51 157
51 214
51 341
51 372
51 578
51 732
51 972
51 986
52 106
52 133
52 163
52 178
52 208
52 319
52 327
52 340
52 369
52 387
52 404
52 471
52 523
52 652
52 844
52 945
52 981
53 82
53 100
53 101
53 111
53 129
53 155
53 182
53 186
53 199
53 234
53 243
53 250
53 253
53 262
53 278
53 312
53 321
53 368
53 388
53 412
53 421
53 446
53 476
53 520
53 542
53 545
53 584
53 599
53 602
53 641
53 697
53 707
53 717
53 720
53 721
53 759
53 762
53 816
53 822
53 833
53 840
53 842
53 854
53 939
53 949
53 955
53 972
53 992
54 66
54 86
54 97
54 227
54 234
54 369
54 390
54 392
54 419
54 441
54 477
54 492
54 496
54 557
54 570
54 761
54 855
54 856
54 969
54 972
54 976
54 994
55 60
55 85
55 177
55 198
55 214
55 215
55 229
55 309
55 346
55 350
55 426
55 450
55 478
55 517
55 683
55 726
55 728
55 805
55 873
55 900
55 931
55 949
55 996
56 99
56 118
56 163
56 209
56 215
56 441
56 483
56 495
56 537
56 575
56 582
56 586
56 607
56 620
56 712
56 715
56 722
56 887
56 997
57 219
57 227
57 243
57 264
57 280
57 310
57 323
57 337
57 389
57 404
57 450
57 457
57 493
57 503
57 523
57 525
57 564
57 565
57 581
57 587
57 605
57 716
57 732
57 816
57 882
57 898
57 900
57 918
57 932
58 114
58 146
58 289
58 377
58 472
58 706
58 746
58 806
58 840
58 846
58 957
59 193
59 198
59 328
59 379
59 451
59 573
59 581
59 662
59 678
59 692
59 693
59 720
59 780
59 883
59 902
59 903
59 936
60 79
60 82
60 94
60 96
60 103
60 126
60 141
60 149
60 240
60 244
60 251
60 252
60 288
60 322
60 346
60 350
60 352
60 361
60 367
60 377
60 394
60 407
60 421
60 462
60 476
60 517
60 527
60 535
60 599
60 618
60 627
60 637
60 646
60 667
60 699
60 705
60 725
60 761
60 777
60 779
60 784
60 786
60 794
60 803
60 808
60 813
60 823
60 830
60 879
60 990
60 999
61 87
61 114
61 148
61 182
61 194
61 302
61 394
61 442
61 448
61 484
61 606
61 683
61 703
61 721
61 769
61 948
62 76
62 85
62 209
62 254
62 276
62 282
62 419
62 564
62 660
62 662
62 668
62 702
62 739
62 826
62 902
62 923
63 94
63 110
63 112
63 127
63 227
63 317
63 322
63 326
63 351
63 372
63 401
63 425
63 446
63 461
63 640
63 693
63 695
63 712
63 714
63 764
63 863
63 920
63 975
64 94
64 98
64 108
64 187
64 224
64 337
64 352
64 354
64 368
64 423
64 447
64 456
64 465
64 467
64 470
64 483
64 531
64 574
64 575
64 577
64 618
64 619
64 646
64 801
64 811
64 855
64 892
64 938
65 83
65 87
65 98
65 116
65 117
65 128
65 175
65 213
65 250
65 259
65 277
65 309
65 370
65 400
65 446
65 487
65 513
65 525
65 538
65 541
65 575
65 580
65 593
65 644
65 709
65 745
65 750
65 751
65 807
65 822
65 823
65 932
65 936
66 144
66 175
66 243
66 277
66 369
66 503
66 713
66 725
66 729
66 761
66 797
66 907
67 133
67 150
67 275
67 356
67 410
67 414
67 507
67 526
67 599
67 648
67 765
67 774
67 923
68 80
68 173
68 254
68 285
68 450
68 485
68 534
68 554
68 566
68 693
68 703
68 716
68 765
68 952
68 998
69 114
69 286
69 309
69 323
69 450
69 480
69 499
69 502
69 546
69 588
69 605
69 755
69 810
69 830
69 918
70 111
70 155
70 171
70 261
70 327
70 350
70 373
70 557
70 567
70 849
70 863
70 890
70 929
70 976
71 72
71 118
71 141
71 146
71 184
71 185
71 209
71 252
71 254
71 291
71 302
71 311
71 326
71 331
71 333
71 338
71 354
71 359
71 379
71 391
71 408
71 410
71 414
71 418
71 443
71 447
71 497
71 509
71 579
71 597
71 616
71 625
71 656
71 674
71 719
71 722
71 760
71 781
71 786
71 809
71 813
71 844
71 845
71 852
71 853
71 877
71 890
71 959
71 964
71 973
71 980
71 997
72 77
72 110
72 144
72 152
72 160
72 250
72 261
72 266
72 299
72 315
72 324
72 391
72 412
72 423
72 438
72 444
72 465
72 479
72 491
72 518
72 553
72 576
72 656
72 680
72 683
72 698
72 718
72 741
72 746
72 774
72 817
72 823
72 829
72 847
72 860
72 877
73 235
73 307
73 345
73 415
73 448
73 450
73 512
73 554
73 604
73 737
73 877
74 243
74 244
74 285
74 327
74 356
74 370
74 403
74 461
74 559
74 596
74 641
74 685
74 724
74 731
74 769
74 777
74 818
74 925
74 980
75 82
75 110
75 161
75 436
75 448
75 454
75 502
75 599
75 615
75 661
75 712
75 724
75 754
75 900
75 945
75 952
75 998
76 88
76 108
76 119
76 121
76 147
76 157
76 214
76 229
76 230
76 306
76 311
76 358
76 388
76 397
76 406
76 431
76 462
76 480
76 491
76 501
76 519
76 529
76 538
76 578
76 596
76 601
76 609
76 702
76 707
76 711
76 713
76 716
76 756
76 773
76 799
76 823
76 861
76 864
76 948
76 952
76 953
76 973
76 994
77 243
77 321
77 330
77 354
77 359
77 475
77 593
77 919
78 117
78 128
78 198
78 205
78 214
78 255
78 439
78 537
78 541
78 567
78 630
78 734
78 809
78 911
78 926
78 974
79 100
79 102
79 122
79 255
79 260
79 261
79 335
79 357
79 444
79 491
79 538
79 557
79 569
79 672
79 754
79 793
79 839
79 844
79 890
79 904
79 948
80 170
80 214
80 309
80 329
80 337
80 543
80 733
80 838
80 900
80 906
80 948
80 973
81 152
81 187
81 294
81 307
81 354
81 357
81 433
81 434
81 646
81 735
81 776
81 830
81 877
81 911
81 946
81 960
82 181
82 252
82 278
82 329
82 371
82 508
82 535
82 572
82 637
82 729
82 767
82 769
82 789
82 839
82 961
82 986
82 998
83 106
83 159
83 164
83 194
83 198
83 205
83 213
83 222
83 278
83 289
83 316
83 319
83 378
83 402
83 444
83 451
83 453
83 466
83 555
83 585
83 597
83 612
83 616
83 632
83 635
83 677
83 729
83 730
83 753
83 765
83 780
83 825
83 828
83 838
83 902
83 914
84 90
84 117
84 203
84 242
84 255
84 344
84 384
84 439
84 473
84 551
84 711
84 721
84 854
85 100
85 167
85 227
85 270
85 309
85 507
85 575
85 630
85 634
85 695
85 699
85 729
85 829
85 872
85 893
85 921
85 929
85 930
86 120
86 142
86 144
86 145
86 161
86 172
86 179
86 189
86 192
86 193
86 297
86 309
86 314
86 324
86 349
86 378
86 386
86 396
86 401
86 432
86 437
86 455
86 465
86 485
86 502
86 505
86 527
86 554
86 572
86 581
86 590
86 593
86 615
86 639
86 655
86 665
86 693
86 715
86 810
86 814
86 824
86 869
86 876
86 885
86 894
86 928
86 950
86 953
86 963
86 969
87 98
87 143
87 203
87 346
87 398
87 502
87 593
87 687
87 742
87 756
87 762
87 843
87 909
87 948
87 996
88 109
88 138
88 245
88 260
88 284
88 390
88 512
88 523
88 526
88 599
88 658
88 676
88 712
88 732
88 789
88 923
88 929
88 986
89 137
89 173
89 251
89 374
89 430
89 509
89 554
89 640
89 682
89 707
89 795
89 824
89 917
90 114
90 126
90 153
90 172
90 352
90 404
90 504
90 508
90 526
90 839
90 860
90 918
90 962
90 977
90 982
90 994
91 105
91 231
91 243
91 277
91 283
91 298
91 302
91 321
91 423
91 475
91 557
91 595
91 620
91 785
91 962
92 117
92 118
92 276
92 342
92 350
92 368
92 377
92 393
92 434
92 528
92 546
92 560
92 561
92 592
92 651
92 680
92 712
92 783
92 797
92 802
92 851
92 852
92 893
93 125
93 166
93 319
93 454
93 487
93 654
93 657
93 677
93 678
93 690
93 701
93 743
93 751
93 785
93 830
93 839
94 107
94 146
94 215
94 230
94 236
94 276
94 335
94 350
94 450
94 579
94 584
94 699
94 763
94 779
94 931
94 963
95 98
95 99
95 133
95 267
95 308
95 381
95 442
95 666
95 745
95 783
95 855
95 902
95 904
95 948
96 98
96 130
96 132
96 136
96 139
96 173
96 256
96 274
96 284
96 288
96 289
96 290
96 298
96 301
96 333
96 334
96 342
96 346
96 363
96 396
96 418
96 427
96 532
96 551
96 557
96 589
96 592
96 610
96 617
96 622
96 677
96 701
96 724
96 726
96 745
96 775
96 811
96 822
96 843
96 884
96 888
96 896
96 897
96 931
96 946
96 950
96 985
96 995
97 102
97 127
97 209
97 255
97 309
97 320
97 347
97 377
97 406
97 408
97 425
97 539
97 630
97 699
97 787
97 834
97 847
97 857
97 873
97 959
97 973
97 977
98 99
98 137
98 220
98 227
98 242
98 267
98 278
98 294
98 302
98 334
98 349
98 370
98 381
98 412
98 442
98 445
98 475
98 502
98 512
98 553
98 566
98 569
98 586
98 598
98 599
98 602
98 626
98 657
98 687
98 718
98 721
98 755
98 756
98 758
98 762
98 801
98 816
98 820
98 823
98 853
98 857
98 876
98 879
98 881
98 898
98 948
99 136
99 163
99 164
99 188
99 195
99 209
99 236
99 283
99 292
99 313
99 373
99 442
99 455
99 471
99 484
99 540
99 557
99 558
99 601
99 672
99 677
99 712
99 786
99 790
99 904
99 906
99 912
99 940
99 942
99 948
99 965
99 991
100 163
100 215
100 254
100 327
100 363
100 386
100 408
100 418
100 565
100 566
100 687
100 784
100 810
100 859
100 911
100 946
100 988
101 170
101 302
101 313
101 406
101 481
101 485
101 546
101 567
101 641
101 665
101 692
101 717
101 736
101 744
101 832
101 926
101 998
102 136
102 214
102 221
102 234
102 254
102 257
102 270
102 309
102 443
102 495
102 547
102 557
102 587
102 615
102 654
102 728
102 822
102 877
102 888
102 916
102 994
103 124
103 142
103 201
103 273
103 300
103 302
103 327
103 354
103 551
103 567
103 706
103 719
103 791
103 793
103 804
103 844
103 933
103 977
104 105
104 132
104 136
104 248
104 350
104 473
104 492
104 532
104 606
104 650
104 693
104 719
104 841
104 911
105 106
105 159
105 163
105 177
105 202
105 208
105 262
105 299
105 319
105 329
105 399
105 716
105 756
105 834
105 848
105 884
105 885
105 938
105 951
106 220
106 294
106 309
106 319
106 381
106 400
106 403
106 411
106 448
106 554
106 591
106 614
106 642
106 911
106 981
107 151
107 201
107 275
107 309
107 395
107 652
107 745
107 798
107 840
107 906
107 948
107 967
108 127
108 148
108 201
108 317
108 405
108 443
108 478
108 652
108 662
108 699
108 754
108 874
108 889
108 900
108 962
108 973
108 998
109 146
109 197
109 214
109 217
109 257
109 258
109 285
109 287
109 295
109 312
109 326
109 363
109 397
109 428
109 444
109 448
109 496
109 514
109 528
109 537
109 573
109 588
109 611
109 622
109 623
109 629
109 630
109 663
109 669
109 671
109 683
109 716
109 747
109 756
109 765
109 774
109 806
109 819
109 860
109 876
109 877
109 905
109 907
109 938
109 943
109 973
109 996
110 129
110 138
110 179
110 218
110 327
110 329
110 373
110 378
110 400
110 404
110 434
110 454
110 488
110 502
110 545
110 547
110 548
110 566
110 589
110 615
110 622
110 652
110 661
110 707
110 790
110 797
110 868
110 890
110 919
110 951
110 965
110 986
110 998
111 156
111 294
111 327
111 329
111 379
111 510
111 515
111 606
111 630
111 802
111 923
111 972
112 225
112 255
112 322
112 354
112 418
112 550
112 675
112 712
112 745
112 786
112 808
112 816
112 887
112 906
112 923
112 954
112 969
112 981
113 203
113 296
113 315
113 350
113 523
113 563
113 649
113 683
113 694
113 722
113 725
113 788
113 850
113 884
113 948
113 972
114 121
114 149
114 162
114 163
114 213
114 249
114 255
114 322
114 339
114 365
114 406
114 440
114 450
114 453
114 470
114 478
114 480
114 484
114 556
114 607
114 630
114 633
114 656
114 665
114 668
114 671
114 673
114 705
114 723
114 741
114 756
114 790
114 830
114 837
114 855
114 864
114 876
114 878
114 953
114 956
114 986
115 121
115 130
115 171
115 174
115 267
115 277
115 321
115 327
115 357
115 382
115 392
115 433
115 444
115 477
115 520
115 534
115 540
115 541
115 550
115 560
115 590
115 652
115 745
115 748
115 751
115 758
115 775
115 794
115 798
115 808
115 810
115 830
115 850
115 851
115 904
115 917
115 931
115 978
115 985
116 173
116 201
116 212
116 345
116 346
116 391
116 431
116 443
116 487
116 496
116 525
116 581
116 631
116 836
116 844
116 859
116 884
116 935
117 209
117 220
117 262
117 271
117 388
117 410
117 500
117 541
117 564
117 573
117 593
117 645
117 718
117 724
117 735
117 972
117 986
118 164
118 209
118 236
118 366
118 371
118 479
118 516
118 528
118 565
118 586
118 617
118 754
118 799
118 888
118 937
118 940
118 952
119 141
119 167
119 251
119 270
119 285
119 286
119 389
119 390
119 398
119 403
119 441
119 638
119 644
119 871
119 950
120 156
120 191
120 201
120 255
120 267
120 377
120 397
120 488
120 541
120 595
120 607
120 637
120 640
120 783
120 816
120 869
120 887
120 891
120 900
120 951
120 998
121 147
121 280
121 475
121 491
121 573
121 603
121 673
121 678
121 711
121 725
121 740
121 767
121 823
121 832
121 945
121 969
122 123
122 130
122 132
122 179
122 261
122 271
122 273
122 280
122 321
122 331
122 335
122 369
122 386
122 432
122 458
122 509
122 521
122 541
122 593
122 697
122 746
122 795
122 855
122 885
122 947
122 963
123 170
123 230
123 243
123 255
123 337
123 416
123 468
123 518
123 534
123 675
123 689
123 831
123 866
123 985
123 993
124 219
124 294
124 354
124 379
124 470
124 480
124 554
124 685
124 765
124 818
124 860
124 869
124 895
124 907
124 950
124 955
125 129
125 132
125 217
125 299
125 320
125 321
125 555
125 654
125 799
125 843
125 868
125 874
125 963
125 984
126 133
126 141
126 201
126 251
126 350
126 450
126 482
126 550
126 582
126 614
126 652
126 655
126 797
126 803
126 949
126 952
126 998
126 999
127 143
127 149
127 214
127 241
127 242
127 247
127 290
127 318
127 347
127 358
127 389
127 433
127 503
127 508
127 531
127 548
127 554
127 561
127 579
127 610
127 643
127 660
127 681
127 682
127 719
127 737
127 753
127 764
127 786
127 824
127 849
127 855
127 869
127 879
127 908
127 920
127 928
127 953
127 983
127 994
128 136
128 182
128 246
128 272
128 283
128 303
128 327
128 330
128 339
128 408
128 429
128 451
128 469
128 578
128 588
128 611
128 614
128 686
128 725
128 761
128 805
128 829
128 833
128 860
128 880
128 935
128 940
128 957
128 975
128 997
129 170
129 171
129 215
129 243
129 271
129 320
129 326
129 372
129 422
129 439
129 466
129 468
129 483
129 554
129 693
129 712
129 796
129 822
129 854
129 937
129 944
129 948
129 963
129 994
129 997
130 150
130 272
130 319
130 520
130 595
130 672
130 697
130 759
130 799
130 830
130 881
130 893
130 955
131 163
131 254
131 388
131 411
131 519
131 630
131 704
131 708
131 835
131 952
131 994
132 133
132 145
132 179
132 181
132 195
132 220
132 258
132 269
132 310
132 335
132 389
132 420
132 469
132 479
132 509
132 532
132 541
132 545
132 571
132 577
132 603
132 672
132 701
132 703
132 721
132 725
132 775
132 795
132 822
132 833
132 849
132 885
132 984
133 148
133 151
133 176
133 180
133 206
133 211
133 223
133 256
133 267
133 283
133 322
133 345
133 346
133 369
133 398
133 411
133 443
133 450
133 461
133 464
133 479
133 515
133 543
133 553
133 595
133 610
133 648
133 670
133 708
133 750
133 792
133 807
133 839
133 852
133 860
133 863
133 878
133 879
133 937
133 939
133 943
133 959
133 977
134 286
134 291
134 327
134 382
134 462
134 748
134 860
135 147
135 186
135 200
135 300
135 312
135 407
135 444
135 523
135 541
135 586
135 635
135 641
135 725
135 810
135 880
135 913
135 946
135 957
136 164
136 305
136 369
136 516
136 601
136 661
136 669
136 851
136 873
136 877
137 141
137 205
137 209
137 256
137 264
137 287
137 301
137 307
137 354
137 395
137 397
137 416
137 429
137 433
137 479
137 543
137 599
137 625
137 646
137 650
137 663
137 677
137 697
137 786
137 816
137 825
137 844
137 914
137 921
138 186
138 200
138 280
138 333
138 345
138 356
138 401
138 473
138 495
138 500
138 501
138 512
138 520
138 557
138 563
138 564
138 586
138 669
138 769
138 808
138 929
138 944
138 991
139 225
139 264
139 328
139 489
139 546
139 550
139 562
139 618
139 732
139 764
139 797
140 182
140 201
140 209
140 216
140 310
140 314
140 484
140 536
140 573
140 613
140 777
140 805
140 813
140 838
140 842
140 927
141 198
141 350
141 352
141 356
141 379
141 388
141 431
141 432
141 468
141 498
141 540
141 558
141 590
141 614
141 769
141 806
141 849
141 877
141 900
141 963
142 165
142 255
142 273
142 420
142 483
142 521
142 655
142 668
142 701
142 721
142 961
142 986
142 998
143 149
143 184
143 246
143 261
143 329
143 364
143 371
143 503
143 526
143 531
143 541
143 554
143 583
143 584
143 588
143 598
143 613
143 614
143 643
143 677
143 723
143 726
143 729
143 745
143 764
143 824
143 834
143 855
143 894
143 945
143 962
143 980
143 981
144 193
144 259
144 739
144 744
144 775
144 838
144 865
144 900
144 912
144 950
144 994
145 180
145 217
145 255
145 317
145 429
145 433
145 558
145 576
145 692
145 724
145 827
145 850
145 873
145 880
145 900
146 151
146 228
146 242
146 253
146 316
146 403
146 410
146 624
146 671
146 853
146 974
147 184
147 198
147 209
147 280
147 344
147 353
147 396
147 397
147 430
147 603
147 635
147 672
147 743
147 756
147 793
147 829
147 835
147 877
147 881
147 900
147 929
147 949
147 986
148 151
148 155
148 176
148 248
148 250
148 365
148 373
148 526
148 540
148 813
148 893
148 935
148 990
149 202
149 227
149 307
149 520
149 640
149 690
149 725
149 801
149 803
149 875
149 885
149 925
149 948
149 999
150 170
150 180
150 182
150 187
150 227
150 229
150 259
150 300
150 302
150 315
150 326
150 345
150 346
150 367
150 369
150 389
150 402
150 530
150 535
150 546
150 554
150 579
150 585
150 590
150 608
150 621
150 633
150 647
150 676
150 687
150 692
150 712
150 717
150 725
150 731
150 743
150 754
150 759
150 797
150 803
150 814
150 831
150 843
150 880
150 892
150 919
150 952
150 960
150 980
150 985
150 991
150 998
151 256
151 264
151 483
151 515
151 520
151 553
151 587
151 663
151 721
151 782
151 807
151 884
151 892
151 900
151 935
151 963
151 972
151 977
152 204
152 246
152 343
152 346
152 354
152 442
152 444
152 477
152 511
152 640
152 721
152 772
152 870
152 989
153 173
153 267
153 449
153 485
153 515
153 525
153 595
153 630
153 653
153 657
153 663
153 727
153 739
153 850
153 855
153 874
153 891
153 916
153 985
153 996
154 169
154 193
154 261
154 274
154 310
154 340
154 450
154 460
154 463
154 480
154 573
154 662
154 677
154 732
154 886
154 888
154 911
154 935
154 969
155 198
155 257
155 288
155 300
155 369
155 715
155 741
155 828
155 870
155 908
156 201
156 254
156 261
156 265
156 319
156 352
156 421
156 437
156 485
156 681
156 769
156 813
156 817
156 854
156 911
157 173
157 319
157 340
157 399
157 433
157 452
157 557
157 640
157 652
157 755
157 803
157 913
157 960
157 967
158 229
158 233
158 321
158 334
158 354
158 390
158 429
158 493
158 508
158 672
158 745
158 760
158 780
158 849
158 864
158 911
158 946
159 233
159 388
159 453
159 565
159 654
159 677
159 690
159 776
159 777
159 854
159 986
159 998
160 309
160 314
160 346
160 520
160 598
160 690
160 811
160 816
160 849
160 876
160 883
160 893
160 924
161 214
161 247
161 303
161 321
161 324
161 349
161 388
161 466
161 531
161 581
161 649
161 674
161 825
161 873
161 902
161 953
161 998
162 271
162 330
162 372
162 448
162 535
162 654
162 748
162 900
162 984
163 164
163 171
163 173
163 199
163 215
163 248
163 261
163 276
163 293
163 309
163 322
163 344
163 365
163 408
163 425
163 447
163 450
163 474
163 478
163 560
163 574
163 590
163 592
163 628
163 671
163 677
163 684
163 721
163 732
163 741
163 748
163 756
163 921
163 957
163 975
164 176
164 206
164 213
164 259
164 265
164 301
164 304
164 318
164 343
164 411
164 456
164 468
164 490
164 497
164 573
164 587
164 620
164 646
164 659
164 661
164 666
164 684
164 810
164 850
164 865
164 871
164 932
164 946
164 949
164 987
165 227
165 375
165 428
165 506
165 514
165 546
165 573
165 685
165 824
165 902
165 925
165 934
166 202
166 209
166 253
166 273
166 307
166 516
166 561
166 647
166 662
166 819
166 907
166 909
166 911
166 918
166 934
167 193
167 218
167 227
167 274
167 275
167 384
167 396
167 456
167 462
167 482
167 584
167 630
167 634
167 642
167 645
167 672
167 850
167 916
168 233
168 278
168 302
168 352
168 356
168 369
168 526
168 535
168 624
168 708
168 839
168 863
168 866
168 877
168 937
169 200
169 315
169 373
169 390
169 510
169 518
169 607
169 718
169 754
169 770
169 776
169 883
169 933
169 951
169 960
170 172
170 178
170 185
170 198
170 207
170 214
170 217
170 259
170 308
170 321
170 379
170 408
170 437
170 449
170 463
170 518
170 533
170 544
170 550
170 583
170 591
170 592
170 642
170 649
170 700
170 706
170 738
170 782
170 798
170 827
170 835
170 837
170 840
170 851
170 854
170 884
170 932
170 934
170 981
170 982
171 242
171 261
171 264
171 332
171 365
171 478
171 567
171 605
171 640
171 671
171 741
171 753
171 776
171 830
171 836
171 942
171 946
172 198
172 307
172 308
172 321
172 400
172 409
172 441
172 573
172 650
172 680
172 863
172 973
172 977
173 209
173 237
173 380
173 434
173 437
173 471
173 475
173 541
173 595
173 607
173 644
173 695
173 723
173 760
173 809
173 814
173 904
173 949
174 198
174 272
174 282
174 294
174 354
174 392
174 395
174 423
174 457
174 501
174 554
174 560
174 592
174 630
174 677
174 729
174 751
174 786
174 795
174 813
174 884
174 898
174 908
174 911
174 918
174 963
175 178
175 195
175 284
175 447
175 471
175 595
175 690
175 702
175 758
175 824
175 836
175 844
175 917
175 962
175 977
175 982
176 253
176 265
176 369
176 448
176 449
176 464
176 484
176 535
176 546
176 554
176 610
176 632
176 639
176 642
176 745
176 747
176 973
177 231
177 403
177 412
177 466
177 515
177 725
177 885
177 920
177 951
177 973
178 220
178 248
178 440
178 541
178 593
178 714
178 765
178 869
178 887
178 902
178 943
178 955
179 182
179 278
179 285
179 335
179 475
179 517
179 527
179 698
179 725
179 768
179 818
179 928
179 952
180 260
180 290
180 301
180 313
180 314
180 322
180 335
180 340
180 452
180 510
180 702
180 721
180 776
180 786
180 821
180 846
180 872
180 888
181 183
181 230
181 255
181 267
181 277
181 299
181 309
181 330
181 331
181 388
181 391
181 418
181 428
181 429
181 456
181 475
181 498
181 593
181 753
181 768
181 799
181 853
181 919
181 970
181 981
182 199
182 201
182 207
182 209
182 220
182 251
182 259
182 284
182 291
182 325
182 356
182 374
182 375
182 376
182 382
182 386
182 391
182 412
182 422
182 443
182 475
182 483
182 525
182 544
182 561
182 590
182 645
182 659
182 706
182 730
182 808
182 852
182 861
182 866
182 874
182 880
182 883
182 886
182 906
182 910
182 937
182 950
182 955
183 198
183 211
183 334
183 460
183 612
183 631
183 790
183 877
183 937
183 969
183 976
184 259
184 273
184 310
184 327
184 362
184 367
184 532
184 557
184 568
184 601
184 605
184 612
184 623
184 752
184 759
184 760
184 816
184 940
185 243
185 264
185 273
185 369
185 410
185 478
185 483
185 571
185 579
185 867
185 919
185 923
185 925
186 195
186 198
186 207
186 213
186 229
186 233
186 278
186 300
186 329
186 384
186 399
186 404
186 424
186 475
186 490
186 517
186 527
186 528
186 532
186 534
186 631
186 671
186 676
186 689
186 692
186 702
186 707
186 778
186 786
186 795
186 809
186 836
186 887
186 895
186 943
186 952
187 291
187 354
187 369
187 443
187 483
187 548
187 622
187 786
187 828
187 893
187 916
187 938
188 195
188 261
188 297
188 593
188 601
188 610
188 629
188 714
188 724
188 833
188 856
188 931
188 948
189 266
189 308
189 455
189 477
189 604
189 607
189 626
189 664
189 732
189 735
189 773
189 839
189 845
189 865
190 209
190 328
190 388
190 436
190 489
190 519
190 662
190 690
190 753
190 786
190 858
190 922
190 951
190 968
190 972
191 228
191 231
191 253
191 263
191 390
191 444
191 475
191 528
191 548
191 637
191 903
191 964
191 973
192 311
192 319
192 351
192 354
192 372
192 444
192 538
192 629
192 699
192 721
192 746
192 848
192 854
192 920
192 952
192 967
192 969
193 194
193 200
193 219
193 250
193 261
193 269
193 271
193 306
193 309
193 331
193 401
193 415
193 418
193 419
193 433
193 441
193 458
193 482
193 507
193 517
193 537
193 622
193 633
193 635
193 637
193 677
193 681
193 686
193 707
193 738
193 745
193 748
193 764
193 793
193 827
193 831
193 834
193 839
193 887
193 923
193 931
193 936
193 938
193 947
193 973
193 985
194 200
194 270
194 282
194 323
194 362
194 592
194 604
194 702
194 726
194 734
194 799
194 877
194 908
195 214
195 257
195 268
195 270
195 305
195 315
195 398
195 489
195 513
195 571
195 579
195 580
195 681
195 722
195 750
195 766
195 777
195 789
195 835
195 868
195 873
195 888
195 906
195 943
195 971
195 978
195 994
196 230
196 231
196 317
196 350
196 354
196 366
196 596
196 684
196 734
196 754
196 769
196 774
196 777
196 792
196 850
196 860
196 863
196 901
196 957
196 962
197 320
197 323
197 329
197 344
197 546
197 553
197 573
197 640
197 725
197 764
197 814
197 916
197 983
198 208
198 217
198 254
198 283
198 323
198 326
198 327
198 343
198 353
198 356
198 422
198 426
198 465
198 471
198 475
198 502
198 522
198 587
198 594
198 650
198 651
198 654
198 701
198 738
198 785
198 798
198 803
198 829
198 831
198 881
198 890
198 898
198 911
198 922
198 926
198 937
198 974
199 208
199 229
199 285
199 325
199 334
199 385
199 387
199 391
199 398
199 422
199 443
199 447
199 477
199 496
199 551
199 554
199 724
199 725
199 757
199 774
199 784
199 862
199 883
199 923
199 949
199 982
199 998
200 219
200 232
200 233
200 237
200 301
200 309
200 329
200 349
200 354
200 371
200 388
200 394
200 415
200 418
200 441
200 450
200 473
200 482
200 509
200 524
200 538
200 540
200 544
200 611
200 618
200 633
200 635
200 682
200 702
200 713
200 754
200 755
200 761
200 778
200 793
200 841
200 855
200 919
200 933
200 938
200 944
200 950
200 971
200 980
200 981
201 211
201 213
201 261
201 279
201 292
201 311
201 334
201 345
201 393
201 432
201 434
201 489
201 523
201 527
201 536
201 564
201 624
201 636
201 641
201 649
201 675
201 682
201 683
201 707
201 709
201 717
201 723
201 724
201 742
201 752
201 754
201 790
201 809
201 811
201 858
201 906
201 928
201 959
201 969
202 216
202 229
202 241
202 245
202 254
202 300
202 308
202 344
202 357
202 426
202 499
202 515
202 523
202 568
202 616
202 695
202 711
202 712
202 722
202 724
202 728
202 738
202 772
202 777
202 786
202 940
202 942
202 965
202 986
203 255
203 345
203 355
203 443
203 644
203 724
203 864
203 938
203 951
204 320
204 321
204 422
204 445
204 479
204 510
204 521
204 545
204 627
204 691
204 786
204 797
204 933
205 223
205 324
205 346
205 406
205 528
205 555
205 562
205 584
205 593
205 649
205 746
205 806
205 850
205 992
206 227
206 265
206 292
206 403
206 570
206 590
206 664
206 695
206 738
206 763
206 776
206 786
206 923
206 935
206 937
207 222
207 273
207 307
207 447
207 452
207 472
207 482
207 528
207 567
207 573
207 631
207 641
207 722
207 769
207 778
207 853
208 229
208 295
208 322
208 327
208 350
208 356
208 392
208 557
208 615
208 722
208 853
208 855
208 908
208 998
209 216
209 280
209 284
209 293
209 356
209 369
209 387
209 400
209 404
209 416
209 417
209 438
209 467
209 474
209 496
209 573
209 596
209 613
209 644
209 672
209 693
209 714
209 720
209 751
209 758
209 824
209 827
209 829
209 842
209 843
209 864
209 873
209 875
209 880
209 903
209 909
209 917
209 975
209 988
209 995
210 228
210 348
210 356
210 432
210 612
210 686
210 724
210 745
210 762
210 769
210 862
210 899
210 942
210 946
210 973
210 975
211 272
211 334
211 371
211 498
211 567
211 630
211 705
211 709
211 750
211 752
211 790
211 805
211 866
211 891
211 909
211 921
211 951
211 969
212 221
212 259
212 425
212 567
212 610
212 746
212 771
212 832
212 849
212 865
212 890
212 918
212 973
212 998
213 215
213 270
213 293
213 397
213 526
213 548
213 647
213 967
214 223
214 231
214 243
214 249
214 257
214 270
214 289
214 309
214 334
214 344
214 393
214 398
214 403
214 419
214 422
214 461
214 477
214 487
214 510
214 514
214 524
214 526
214 543
214 570
214 571
214 594
214 635
214 666
214 754
214 777
214 828
214 844
214 877
214 880
214 899
214 922
214 965
214 994
215 231
215 313
215 315
215 343
215 353
215 363
215 372
215 377
215 379
215 387
215 402
215 469
215 471
215 473
215 490
215 526
215 580
215 582
215 598
215 621
215 624
215 625
215 640
215 641
215 659
215 677
215 679
215 694
215 740
215 743
215 784
215 793
215 813
215 818
215 844
215 853
215 872
215 915
215 919
215 949
215 983
215 996
216 225
216 233
216 348
216 355
216 369
216 404
216 415
216 619
216 640
216 651
216 682
216 697
216 785
216 860
216 871
216 900
216 903
216 948
217 263
217 300
217 385
217 465
217 508
217 654
217 725
217 729
217 826
217 849
217 907
217 927
218 261
218 265
218 299
218 441
218 569
218 599
218 630
218 632
218 725
218 765
218 786
219 348
219 458
219 478
219 584
219 666
219 673
219 741
219 754
219 765
219 777
219 790
219 923
219 925
219 948
219 962
220 236
220 331
220 332
220 395
220 398
220 428
220 430
220 445
220 496
220 518
220 522
220 545
220 564
220 569
220 595
220 602
220 617
220 623
220 626
220 666
220 670
220 678
220 713
220 714
220 718
220 738
220 755
220 760
220 807
220 842
220 866
220 910
220 911
220 913
220 931
220 941
220 946
220 952
220 955
220 966
220 969
220 986
221 256
221 273
221 302
221 305
221 355
221 411
221 467
221 572
221 600
221 637
221 803
221 831
221 849
221 996
222 223
222 251
222 286
222 334
222 420
222 427
222 527
222 531
222 624
222 725
222 775
222 917
222 952
223 230
223 252
223 265
223 291
223 546
223 570
223 612
223 638
223 645
223 653
223 724
223 736
223 760
223 763
223 828
223 845
223 966
223 967
224 319
224 321
224 354
224 359
224 646
224 711
224 765
224 865
224 936
224 938
224 953
225 236
225 259
225 335
225 336
225 371
225 522
225 562
225 660
225 718
225 735
225 842
225 950
225 968
225 972
226 265
226 448
226 483
226 495
226 515
226 549
226 580
226 589
226 601
226 629
226 690
226 765
226 797
226 802
226 875
226 975
226 980
226 986
227 261
227 278
227 287
227 298
227 315
227 396
227 467
227 484
227 630
227 634
227 695
227 698
227 709
227 778
227 814
227 869
228 236
228 327
228 342
228 356
228 443
228 522
228 560
228 630
228 634
228 701
228 781
228 950
229 232
229 259
229 322
229 340
229 358
229 379
229 456
229 485
229 493
229 523
229 541
229 563
229 569
229 606
229 621
229 639
229 652
229 667
229 672
229 706
229 726
229 731
229 747
229 761
229 766
229 778
229 780
229 798
229 800
229 805
229 813
229 827
229 856
229 864
229 889
229 893
229 898
229 900
229 942
229 988
229 996
229 999
230 461
230 596
230 705
230 797
230 832
230 884
230 900
230 903
231 691
231 710
231 785
231 855
231 963
231 995
231 998
232 274
232 285
232 289
232 352
232 356
232 390
232 441
232 444
232 577
232 633
232 635
232 652
232 820
232 884
232 962
233 320
233 341
233 408
233 484
233 531
233 733
233 747
233 884
233 902
233 960
233 969
234 298
234 307
234 327
234 352
234 450
234 590
234 617
234 798
234 849
234 869
234 894
235 268
235 313
235 481
235 508
235 512
235 515
235 553
235 572
235 594
235 660
235 684
235 736
235 817
236 243
236 292
236 293
236 300
236 304
236 343
236 361
236 373
236 417
236 429
236 484
236 491
236 542
236 548
236 554
236 562
236 580
236 601
236 640
236 671
236 686
236 714
236 736
236 779
236 839
236 852
236 913
236 942
236 983
237 250
237 261
237 273
237 461
237 741
237 770
237 861
237 897
237 936
238 259
238 315
238 332
238 394
238 480
238 557
238 567
238 600
238 607
238 704
238 732
238 741
238 765
238 783
238 822
238 890
238 912
238 916
238 947
239 240
239 244
239 265
239 282
239 293
239 329
239 559
239 749
239 798
239 876
239 943
240 259
240 291
240 319
240 346
240 387
240 693
240 705
240 719
240 746
240 767
240 797
240 850
240 855
240 952
240 999
241 254
241 262
241 270
241 309
241 357
241 463
241 479
241 505
241 599
241 616
241 675
241 701
241 929
242 321
242 417
242 433
242 532
242 565
242 573
242 644
242 651
242 734
242 852
242 980
242 989
243 261
243 268
243 271
243 292
243 300
243 328
243 331
243 345
243 350
243 390
243 403
243 404
243 420
243 423
243 441
243 449
243 467
243 475
243 553
243 577
243 594
243 602
243 640
243 652
243 663
243 696
243 741
243 744
243 759
243 769
243 771
243 782
243 821
243 849
243 854
243 899
243 940
243 955
244 291
244 409
244 481
244 555
244 576
244 609
244 671
244 712
244 725
244 741
244 769
244 827
244 877
245 292
245 300
245 312
245 322
245 380
245 500
245 573
245 584
245 627
245 708
245 760
245 792
245 814
245 861
245 870
245 958
246 393
246 407
246 456
246 475
246 487
246 662
246 665
246 712
246 847
246 915
246 951
246 963
246 972
246 973
247 441
247 490
247 511
247 518
247 552
247 579
247 623
247 839
247 863
247 924
247 947
248 283
248 304
248 307
248 485
248 526
248 532
248 546
248 564
248 656
248 679
248 688
248 725
248 790
248 824
248 825
248 839
248 879
248 993
249 321
249 345
249 346
249 352
249 413
249 640
249 805
249 969
249 982
249 990
250 292
250 577
250 667
250 721
250 769
250 771
250 780
250 818
250 905
250 942
251 324
251 394
251 418
251 443
251 472
251 549
251 566
251 576
251 615
251 628
251 686
251 726
251 763
251 780
251 787
251 900
251 946
251 990
251 991
251 994
252 286
252 350
252 394
252 437
252 565
252 573
252 618
252 697
252 756
252 948
253 345
253 356
253 360
253 403
253 516
253 693
253 694
253 843
253 877
253 883
253 952
254 258
254 293
254 304
254 316
254 328
254 339
254 341
254 368
254 374
254 377
254 445
254 466
254 502
254 503
254 585
254 586
254 600
254 604
254 637
254 640
254 677
254 681
254 693
254 716
254 749
254 751
254 776
254 780
254 786
254 797
254 824
254 836
254 854
254 892
254 896
254 922
254 932
254 935
254 984
254 987
255 263
255 273
255 274
255 292
255 318
255 320
255 321
255 373
255 420
255 485
255 504
255 525
255 557
255 565
255 570
255 598
255 601
255 624
255 628
255 648
255 653
255 668
255 689
255 712
255 728
255 752
255 759
255 782
255 801
255 840
255 854
255 866
255 870
255 878
255 880
255 888
255 916
255 921
255 922
256 290
256 320
256 792
256 844
256 854
256 871
256 879
256 922
256 941
256 972
256 998
257 270
257 271
257 309
257 315
257 329
257 398
257 563
257 924
257 991
257 994
258 320
258 395
258 488
258 590
258 613
258 671
258 675
258 696
258 712
258 723
258 752
258 802
258 830
258 874
258 951
259 260
259 268
259 269
259 274
259 371
259 382
259 386
259 439
259 461
259 476
259 501
259 505
259 532
259 540
259 568
259 570
259 587
259 630
259 636
259 683
259 687
259 693
259 706
259 709
259 739
259 750
259 754
259 759
259 762
259 763
259 785
259 789
259 792
259 835
259 858
259 878
259 903
259 971
259 981
259 986
259 997
260 272
260 284
260 378
260 389
260 391
260 501
260 508
260 535
260 539
260 563
260 564
260 583
260 590
260 599
260 608
260 655
260 669
260 677
260 728
260 767
260 849
260 858
260 863
260 864
260 928
260 929
261 273
261 290
261 302
261 332
261 373
261 383
261 428
261 437
261 455
261 519
261 532
261 622
261 664
261 681
261 683
261 703
261 742
261 754
261 829
261 838
261 844
261 846
261 912
261 977
261 983
262 444
262 478
262 500
262 581
262 616
262 745
262 782
262 824
263 305
263 440
263 496
263 573
263 599
263 600
263 610
263 732
263 949
264 266
264 418
264 435
264 529
264 534
264 546
264 583
264 592
264 597
264 620
264 622
264 630
264 651
264 690
264 721
264 764
264 875
264 919
264 921
264 945
264 954
264 991
265 327
265 335
265 443
265 445
265 464
265 488
265 499
265 574
265 584
265 627
265 630
265 797
265 857
265 874
265 877
265 896
265 902
265 932
265 977
266 349
266 352
266 444
266 466
266 576
266 604
266 646
266 704
266 794
266 822
266 849
266 874
266 919
266 931
266 999
267 270
267 286
267 375
267 412
267 413
267 433
267 434
267 445
267 491
267 495
267 498
267 520
267 539
267 549
267 557
267 595
267 619
267 622
267 625
267 634
267 652
267 664
267 667
267 670
267 681
267 689
267 700
267 706
267 713
267 777
267 787
267 800
267 809
267 853
267 854
267 886
267 906
267 910
267 927
267 932
267 969
267 988
267 996
268 285
268 444
268 446
268 476
268 519
268 549
268 603
268 687
268 697
268 723
268 740
268 831
268 868
268 970
269 314
269 381
269 395
269 448
269 515
269 535
269 540
269 601
269 607
269 687
269 782
269 797
269 818
269 946
270 295
270 398
270 425
270 558
270 563
270 604
270 620
270 734
270 792
270 887
270 888
270 906
270 921
270 940
270 994
271 541
271 564
271 597
271 604
271 759
271 873
271 935
271 944
271 955
272 277
272 284
272 327
272 338
272 390
272 442
272 531
272 620
272 672
272 678
272 712
272 831
272 948
272 976
273 279
273 309
273 318
273 350
273 356
273 383
273 411
273 414
273 461
273 498
273 499
273 524
273 570
273 573
273 575
273 577
273 596
273 623
273 658
273 673
273 682
273 710
273 725
273 731
273 762
273 774
273 801
273 810
273 811
273 813
273 829
273 884
273 893
273 940
273 981
273 982
274 328
274 441
274 573
274 624
274 635
274 708
274 721
274 734
274 969
275 402
275 433
275 568
275 625
275 652
275 790
275 878
275 997
276 523
276 644
276 693
276 771
276 829
276 832
276 852
276 969
276 978
277 319
277 356
277 449
277 501
277 621
277 652
277 669
277 825
277 875
277 881
277 958
278 291
278 300
278 383
278 390
278 572
278 629
278 677
278 776
278 850
278 906
278 909
278 928
278 997
279 297
279 414
279 475
279 537
279 623
279 634
279 678
279 710
279 719
279 855
279 865
279 869
279 889
279 902
279 963
279 986
280 296
280 397
280 403
280 455
280 537
280 573
280 679
280 697
280 707
280 823
280 833
280 880
280 951
280 963
281 310
281 332
281 526
281 599
281 618
281 686
281 803
281 809
281 830
281 835
281 927
282 379
282 407
282 537
282 557
282 585
282 636
282 698
282 702
282 724
282 820
282 923
282 969
282 981
283 321
283 403
283 510
283 553
283 581
283 679
283 709
283 733
283 760
283 860
283 863
284 285
284 323
284 333
284 477
284 611
284 806
284 819
284 855
285 303
285 334
285 350
285 352
285 354
285 357
285 358
285 415
285 418
285 439
285 468
285 518
285 521
285 574
285 576
285 587
285 593
285 601
285 625
285 636
285 691
285 769
285 785
285 831
285 839
285 844
285 901
285 946
285 962
285 979
285 996
286 350
286 351
286 399
286 439
286 474
286 476
286 498
286 527
286 546
286 608
286 631
286 706
286 757
286 765
286 778
286 785
286 798
286 804
286 828
286 857
286 892
286 928
286 953
286 955
286 994
287 369
287 444
287 503
287 523
287 534
287 653
287 814
287 833
287 963
288 300
288 326
288 328
288 372
288 427
288 662
288 825
288 854
288 918
288 924
289 300
289 346
289 352
289 418
289 427
289 534
289 554
289 701
289 745
289 829
289 854
289 907
289 951
290 297
290 315
290 319
290 411
290 484
290 498
290 546
290 593
290 604
290 647
291 325
291 366
291 491
291 552
291 593
291 609
291 627
291 773
291 803
291 809
291 855
291 877
291 904
291 925
291 963
291 979
292 484
292 517
292 540
292 714
292 724
292 736
292 746
292 762
292 763
292 776
292 857
292 902
292 942
292 986
293 377
293 403
293 472
293 564
293 614
293 777
293 948
293 956
294 318
294 319
294 509
294 515
294 573
294 591
294 687
294 700
294 805
294 859
294 937
294 951
294 957
294 981
294 988
295 298
295 322
295 350
295 363
295 394
295 439
295 508
295 570
295 803
295 884
295 889
295 898
296 298
296 326
296 346
296 389
296 429
296 478
296 509
296 511
296 532
296 610
296 643
296 657
296 671
296 690
296 725
296 751
296 795
296 839
296 973
297 321
297 506
297 520
297 526
297 550
297 583
297 786
297 789
297 854
298 350
298 362
298 369
298 380
298 385
298 422
298 515
298 529
298 568
298 645
298 699
298 854
299 307
299 328
299 338
299 375
299 393
299 408
299 437
299 444
299 466
299 475
299 478
299 509
299 537
299 576
299 602
299 635
299 675
299 680
299 699
299 711
299 714
299 724
299 803
299 863
299 890
299 891
299 986
299 989
300 326
300 378
300 386
300 395
300 415
300 432
300 435
300 448
300 467
300 513
300 538
300 574
300 591
300 595
300 708
300 721
300 723
300 744
300 746
300 776
300 813
300 824
300 825
300 830
300 840
300 870
300 882
300 884
300 908
300 911
300 947
301 433
301 440
301 515
301 643
301 793
301 833
301 978
302 315
302 410
302 463
302 490
302 551
302 585
302 641
302 649
302 654
302 706
302 713
302 769
302 804
302 841
302 867
302 870
302 887
302 933
303 307
303 364
303 371
303 372
303 421
303 425
303 520
303 553
303 575
303 578
303 717
303 740
303 789
303 816
303 838
303 921
303 964
304 323
304 355
304 425
304 437
304 445
304 487
304 512
304 662
304 727
304 769
304 786
304 797
304 918
304 935
304 971
305 365
305 493
305 575
305 646
305 689
305 703
305 732
305 824
305 897
305 993
305 994
306 444
306 484
306 486
306 596
306 597
306 673
306 676
306 692
306 751
306 759
306 912
306 962
307 324
307 327
307 348
307 354
307 416
307 418
307 435
307 478
307 479
307 590
307 630
307 632
307 651
307 660
307 673
307 737
307 740
307 816
307 824
307 836
307 847
307 878
307 898
307 938
307 960
307 961
307 989
308 373
308 426
308 464
308 469
308 533
308 539
308 568
308 584
308 607
308 674
308 773
308 807
308 827
308 892
308 964
308 970
308 998
309 377
309 413
309 454
309 491
309 543
309 568
309 571
309 625
309 640
309 678
309 765
309 791
309 797
309 806
309 888
309 908
309 968
309 988
309 994
310 323
310 338
310 350
310 370
310 389
310 412
310 450
310 461
310 473
310 475
310 480
310 485
310 494
310 530
310 559
310 560
310 567
310 568
310 613
310 619
310 640
310 654
310 659
310 687
310 715
310 722
310 732
310 775
310 776
310 882
310 891
310 894
310 901
310 930
310 947
310 967
310 977
310 981
310 992
310 993
311 335
311 531
311 543
311 661
311 662
311 671
311 785
311 823
311 998
312 321
312 359
312 441
312 526
312 584
312 630
312 651
312 693
312 701
312 739
312 789
312 795
312 940
313 314
313 363
313 382
313 391
313 541
313 557
313 558
313 569
313 662
313 745
313 818
313 832
313 845
313 862
313 868
313 946
313 977
314 347
314 357
314 387
314 428
314 450
314 487
314 542
314 547
314 548
314 785
314 843
314 859
314 877
314 902
314 973
314 992
315 354
315 363
315 386
315 391
315 403
315 408
315 425
315 451
315 567
315 580
315 590
315 617
315 667
315 676
315 694
315 741
315 763
315 824
315 826
315 839
315 855
315 857
315 912
315 915
315 986
315 994
316 359
316 390
316 439
316 579
316 648
316 725
317 418
317 465
317 536
317 582
317 603
317 633
317 676
317 716
317 766
317 785
317 790
317 803
317 828
317 835
317 855
317 940
317 973
318 327
318 369
318 456
318 522
318 573
318 670
318 721
318 766
318 777
318 850
318 883
318 898
318 899
318 988
319 323
319 342
319 353
319 354
319 360
319 369
319 385
319 408
319 435
319 453
319 479
319 510
319 515
319 519
319 542
319 553
319 591
319 614
319 721
319 740
319 752
319 776
319 812
319 818
319 826
319 859
319 872
319 983
320 347
320 394
320 398
320 423
320 425
320 460
320 478
320 721
320 738
320 747
320 763
320 794
320 797
320 844
320 857
320 870
320 871
320 877
320 927
321 335
321 372
321 379
321 384
321 403
321 409
321 448
321 490
321 541
321 544
321 550
321 565
321 575
321 583
321 602
321 605
321 617
321 625
321 655
321 666
321 677
321 689
321 711
321 713
321 714
321 721
321 796
321 798
321 810
321 816
321 821
321 837
321 854
321 894
321 918
321 951
321 967
321 998
322 336
322 350
322 358
322 377
322 405
322 409
322 514
322 565
322 587
322 678
322 738
322 779
322 828
322 831
322 905
322 967
323 336
323 361
323 390
323 450
323 454
323 480
323 486
323 503
323 508
323 562
323 563
323 574
323 579
323 587
323 603
323 605
323 621
323 662
323 721
323 731
323 732
323 758
323 799
323 839
323 860
323 882
323 891
323 898
323 910
323 918
323 946
323 952
323 960
324 330
324 398
324 443
324 548
324 550
324 559
324 570
324 584
324 765
324 921
325 334
325 380
325 391
325 394
325 443
325 472
325 526
325 562
325 579
325 590
325 644
325 645
325 662
325 760
325 790
325 803
325 948
325 954
325 973
326 581
326 634
326 640
326 693
326 697
326 769
326 836
326 913
326 963
327 380
327 402
327 502
327 506
327 525
327 540
327 543
327 589
327 590
327 603
327 610
327 626
327 644
327 663
327 679
327 680
327 724
327 741
327 862
327 863
327 894
327 898
327 899
327 904
327 923
327 935
327 954
327 970
328 372
328 380
328 428
328 520
328 567
328 574
328 592
328 605
328 634
328 662
328 665
328 692
328 711
328 730
328 733
328 766
328 803
328 813
328 819
328 847
328 849
328 893
328 917
328 951
328 952
328 969
329 398
329 403
329 428
329 429
329 436
329 454
329 545
329 551
329 578
329 584
329 590
329 622
329 648
329 680
329 729
329 751
329 773
329 776
329 943
329 951
329 963
329 979
329 998
330 340
330 348
330 354
330 363
330 414
330 456
330 475
330 505
330 521
330 551
330 564
330 568
330 593
330 621
330 680
330 689
330 697
330 731
330 802
330 892
330 919
330 933
330 964
331 354
331 386
331 428
331 535
331 873
331 952
332 371
332 387
332 461
332 466
332 468
332 502
332 561
332 567
332 599
332 639
332 648
332 765
332 769
332 773
332 791
332 856
332 891
332 893
332 927
332 952
332 956
332 958
332 992
332 994
333 356
333 388
333 708
333 751
333 962
334 367
334 445
334 527
334 567
334 570
334 573
334 588
334 589
334 599
334 709
334 712
334 798
334 849
334 850
334 875
334 884
334 935
334 946
334 949
334 956
334 959
334 969
334 975
335 337
335 350
335 389
335 415
335 500
335 505
335 509
335 590
335 592
335 620
335 714
335 725
335 749
335 760
335 792
335 795
335 821
335 822
335 840
335 855
335 930
335 949
335 962
336 479
336 553
336 598
336 610
336 754
336 767
336 792
336 850
336 922
336 942
337 343
337 357
337 362
337 396
337 410
337 418
337 420
337 429
337 433
337 448
337 551
337 557
337 575
337 677
337 686
337 697
337 747
337 768
337 769
337 796
337 805
337 824
337 844
337 896
337 908
337 951
337 960
337 963
337 988
338 340
338 485
338 486
338 514
338 593
338 676
338 745
338 751
338 773
338 877
338 952
338 962
339 617
339 654
339 656
339 721
339 791
339 805
339 847
339 923
339 950
340 379
340 388
340 520
340 521
340 547
340 561
340 587
340 671
340 698
340 723
340 745
340 881
340 955
341 462
341 617
341 724
341 768
341 778
341 852
342 346
342 437
342 448
342 579
342 745
342 770
342 803
342 829
342 830
342 884
342 911
343 388
343 407
343 410
343 456
343 500
343 599
343 661
343 712
343 738
343 797
343 812
343 877
343 977
344 347
344 446
344 470
344 490
344 495
344 608
344 618
344 712
344 777
344 883
345 399
345 406
345 492
345 494
345 501
345 510
345 526
345 530
345 540
345 576
345 578
345 589
345 635
345 647
345 665
345 673
345 692
345 721
345 743
345 761
345 788
345 800
345 803
345 969
345 977
346 355
346 362
346 369
346 386
346 396
346 418
346 450
346 457
346 458
346 637
346 641
346 644
346 707
346 716
346 723
346 745
346 752
346 764
346 782
346 822
346 830
346 831
346 846
346 848
346 850
346 859
346 861
346 882
346 884
346 899
346 937
346 956
346 958
346 981
347 457
347 467
347 478
347 489
347 520
347 711
347 764
347 844
347 885
347 887
347 943
348 388
348 556
348 565
348 567
348 630
348 634
348 698
348 767
348 790
348 855
349 403
349 451
349 457
349 565
349 677
349 732
349 773
349 790
349 810
349 816
349 913
349 953
350 381
350 394
350 403
350 410
350 412
350 443
350 491
350 511
350 535
350 555
350 560
350 629
350 666
350 678
350 682
350 688
350 693
350 694
350 696
350 697
350 712
350 742
350 746
350 893
350 906
350 908
350 909
350 925
350 946
350 955
350 967
350 988
350 990
351 388
351 472
351 567
351 579
351 636
351 640
351 697
351 725
351 735
351 746
351 799
351 913
351 958
351 999
352 353
352 395
352 400
352 406
352 431
352 481
352 511
352 539
352 541
352 574
352 592
352 633
352 646
352 652
352 657
352 678
352 700
352 708
352 709
352 754
352 838
352 839
352 842
352 863
352 902
352 908
352 920
352 924
352 928
352 976
352 981
352 993
353 438
353 524
353 621
353 722
353 776
353 854
353 923
353 939
354 427
354 429
354 459
354 483
354 552
354 577
354 660
354 664
354 721
354 744
354 752
354 754
354 764
354 771
354 791
354 797
354 805
354 849
354 867
354 908
354 909
354 916
354 924
354 932
354 938
354 965
354 966
354 981
354 984
354 994
355 430
355 484
355 514
355 558
355 632
355 662
355 788
355 790
355 852
355 854
355 949
356 416
356 420
356 423
356 424
356 439
356 451
356 470
356 487
356 500
356 504
356 565
356 596
356 635
356 641
356 685
356 693
356 710
356 722
356 731
356 765
356 768
356 769
356 784
356 791
356 843
356 862
356 896
356 917
356 956
356 958
356 980
356 983
356 987
357 441
357 616
357 630
357 751
357 760
357 793
357 853
357 960
358 406
358 411
358 493
358 541
358 546
358 644
358 742
358 780
358 834
358 893
358 973
359 410
359 475
359 512
359 544
359 569
359 664
359 871
359 889
359 906
359 949
360 467
360 472
360 519
360 537
360 556
360 854
360 859
360 907
360 933
360 981
360 986
361 388
361 394
361 403
361 576
361 582
361 759
361 801
361 808
361 952
361 977
362 433
362 546
362 565
362 575
362 650
362 696
362 768
362 790
362 824
362 844
362 981
362 986
362 988
362 996
363 478
363 564
363 671
363 800
363 855
363 913
363 937
363 940
363 946
363 965
363 977
364 436
364 437
364 443
364 515
364 540
364 546
364 588
364 610
364 634
364 825
364 875
364 893
364 969
365 468
365 478
365 481
365 502
365 599
365 668
365 671
365 732
365 830
365 859
365 884
365 935
366 518
366 669
366 676
366 721
366 746
366 839
366 847
366 848
366 969
367 376
367 405
367 407
367 408
367 429
367 467
367 470
367 557
367 611
367 652
367 702
367 765
367 816
367 846
367 850
367 923
367 928
367 987
368 471
368 565
368 608
368 644
368 696
368 701
368 724
368 852
368 913
369 393
369 429
369 433
369 438
369 461
369 487
369 584
369 630
369 642
369 646
369 680
369 721
369 734
369 752
369 761
369 776
369 793
369 794
369 820
369 833
369 892
369 898
369 901
369 929
369 943
369 952
369 976
369 993
369 994
370 474
370 515
370 516
370 525
370 564
370 724
370 734
370 760
370 796
370 836
370 885
371 423
371 426
371 456
371 468
371 491
371 606
371 619
371 680
371 737
371 754
371 777
371 957
372 376
372 449
372 450
372 516
372 525
372 537
372 579
372 643
372 652
372 828
372 849
372 850
372 855
373 541
373 596
373 622
373 688
373 701
373 724
373 790
373 814
373 819
373 865
373 881
373 927
373 960
374 476
374 534
374 575
374 659
374 710
374 775
374 786
374 797
374 824
374 906
374 918
374 948
374 954
375 413
375 430
375 495
375 497
375 540
375 654
375 664
375 899
375 900
375 920
375 968
375 977
376 472
376 557
376 567
376 599
376 702
376 776
376 802
376 855
376 885
376 923
376 999
377 433
377 595
377 792
377 809
377 830
378 381
378 392
378 498
378 581
378 814
378 876
378 927
379 427
379 433
379 498
379 506
379 541
379 543
379 544
379 550
379 583
379 592
379 593
379 633
379 651
379 718
379 719
379 754
379 765
379 798
379 799
379 837
379 854
379 890
380 442
380 471
380 548
380 625
380 629
380 674
380 711
380 721
380 729
380 730
380 749
380 760
380 780
380 816
380 819
380 966
381 390
381 544
381 595
381 672
381 732
381 871
381 900
381 948
382 636
382 675
382 946
382 949
382 959
382 969
383 437
383 485
383 515
383 519
383 538
383 601
383 653
383 658
383 668
383 725
383 754
383 790
383 844
383 846
383 952
383 983
384 509
384 565
384 617
384 721
384 731
384 792
384 836
385 390
385 503
385 728
385 758
385 769
385 873
385 900
385 921
385 937
386 476
386 482
386 526
386 676
386 724
386 725
386 744
386 750
386 769
386 777
386 941
387 535
387 547
387 581
387 764
387 776
387 777
387 786
387 803
387 877
387 902
388 391
388 409
388 475
388 482
388 483
388 489
388 494
388 497
388 564
388 568
388 582
388 588
388 594
388 636
388 648
388 667
388 694
388 708
388 716
388 730
388 732
388 748
388 762
388 777
388 790
388 792
388 800
388 801
388 825
388 861
388 862
388 894
388 900
388 922
388 947
388 952
388 954
388 993
388 994
389 429
389 444
389 540
389 545
389 676
389 725
389 769
389 795
389 812
389 843
389 844
389 865
389 948
389 960
390 400
390 425
390 440
390 464
390 466
390 512
390 517
390 553
390 567
390 590
390 615
390 619
390 627
390 648
390 677
390 729
390 733
390 776
390 797
390 808
390 812
390 832
390 857
390 870
390 877
390 886
390 893
390 906
390 978
390 999
391 443
391 545
391 645
391 732
391 762
391 790
391 812
391 832
391 883
391 981
392 418
392 441
392 541
392 671
392 805
392 945
393 460
393 499
393 517
393 523
393 696
393 712
393 725
393 773
393 785
393 827
393 855
393 905
393 935
393 937
394 414
394 428
394 559
394 597
394 720
394 725
394 745
394 754
394 860
394 874
394 911
394 940
394 966
394 970
395 428
395 446
395 541
395 552
395 599
395 758
395 793
395 819
395 904
395 951
396 441
396 557
396 733
396 745
396 801
396 821
396 822
396 884
396 895
396 967
397 453
397 476
397 583
397 689
397 699
397 750
397 753
397 777
397 780
397 823
397 893
397 946
397 968
398 404
398 450
398 571
398 711
398 746
398 884
398 952
398 955
398 963
398 994
399 483
399 628
399 884
399 920
400 526
400 539
400 677
400 679
400 745
400 765
400 793
400 836
400 841
400 865
401 446
401 596
401 653
401 692
401 729
401 767
401 784
401 874
402 456
402 483
402 549
402 564
402 644
402 661
402 665
402 923
402 982
403 454
403 458
403 530
403 558
403 560
403 562
403 567
403 578
403 592
403 624
403 632
403 641
403 642
403 695
403 727
403 748
403 750
403 751
403 830
403 838
403 848
403 922
403 937
403 975
403 991
404 408
404 421
404 443
404 508
404 613
404 618
404 699
404 729
404 842
404 845
404 934
405 603
405 637
405 646
405 662
405 745
405 806
405 821
405 948
405 951
405 973
406 443
406 446
406 512
406 632
406 638
406 684
406 739
406 765
406 808
406 818
406 847
406 851
406 902
406 944
407 482
407 485
407 557
407 588
407 660
407 672
407 678
407 702
407 711
407 782
407 791
407 810
407 877
407 923
407 954
408 423
408 473
408 554
408 614
408 666
408 707
408 734
408 776
408 777
408 779
408 807
408 871
408 903
409 496
409 615
409 618
409 992
409 994
410 471
410 493
410 506
410 525
410 579
410 599
410 689
410 724
410 754
410 816
410 891
410 913
410 949
410 969
410 988
411 418
411 469
411 525
411 533
411 594
411 595
411 624
411 724
411 739
411 751
411 794
411 818
411 823
411 845
411 863
411 865
411 992
412 413
412 414
412 427
412 441
412 476
412 495
412 550
412 609
412 622
412 664
412 671
412 754
412 790
412 818
412 910
412 923
413 495
413 566
413 640
413 664
413 718
413 741
413 765
413 784
413 960
413 996
414 424
414 497
414 522
414 554
414 655
414 662
414 688
414 793
414 829
414 844
415 441
415 450
415 458
415 482
415 570
415 590
415 672
415 720
415 843
415 848
416 449
416 479
416 568
416 573
416 585
416 811
416 816
416 877
416 921
416 957
417 555
417 560
417 573
417 693
417 699
417 716
417 902
417 903
417 923
418 421
418 450
418 461
418 489
418 575
418 616
418 618
418 664
418 693
418 707
418 745
418 777
418 796
418 822
418 829
418 842
418 848
418 850
418 884
418 905
418 988
419 428
419 617
419 667
419 683
419 691
419 693
419 700
419 721
419 930
420 433
420 575
420 709
420 768
420 839
420 844
420 911
420 935
420 963
421 469
421 542
421 553
421 584
421 685
421 855
421 862
422 443
422 526
422 581
422 706
422 765
422 830
422 980
423 433
423 452
423 603
423 677
423 732
423 742
423 754
423 778
423 785
423 847
423 871
423 947
423 950
423 969
423 975
424 475
424 497
424 527
424 553
424 573
424 632
424 849
424 857
424 937
425 514
425 747
425 882
426 565
426 579
426 727
426 849
426 893
426 897
426 940
426 963
427 441
427 471
427 526
427 586
427 593
427 655
427 661
427 747
427 793
427 844
427 891
427 896
427 921
427 937
427 938
427 994
428 443
428 450
428 491
428 496
428 565
428 570
428 588
428 612
428 630
428 648
428 650
428 687
428 737
428 942
428 948
428 991
429 430
429 656
429 672
429 689
429 698
429 743
429 752
429 777
429 836
429 858
429 867
429 870
429 873
429 880
429 900
429 903
429 956
429 959
429 982
430 532
430 541
430 670
430 689
430 749
430 786
430 792
431 451
431 475
431 485
431 512
431 525
431 633
431 642
431 681
431 786
432 484
432 646
432 662
432 663
432 828
432 832
432 870
432 936
433 438
433 479
433 497
433 498
433 514
433 517
433 537
433 543
433 563
433 575
433 586
433 595
433 596
433 599
433 624
433 644
433 686
433 713
433 727
433 735
433 753
433 754
433 775
433 804
433 824
433 863
433 875
433 887
433 956
433 963
433 995
434 535
434 541
434 573
434 630
434 677
434 690
434 753
434 776
434 895
434 921
434 948
435 437
435 487
435 512
435 556
435 597
435 629
435 640
435 652
435 767
435 844
435 902
435 953
436 559
436 599
436 656
436 672
436 708
436 721
436 722
436 729
436 776
436 802
436 898
436 951
436 998
437 485
437 486
437 503
437 526
437 530
437 581
437 593
437 617
437 660
437 681
437 694
437 719
437 759
437 780
437 824
437 825
437 841
437 846
437 893
437 900
437 906
437 928
437 936
437 954
437 955
437 983
437 993
437 994
438 582
438 644
438 749
438 788
438 810
438 820
438 994
439 493
439 499
439 520
439 587
439 628
439 629
439 646
439 763
439 785
439 811
439 837
439 880
439 901
440 464
440 485
440 543
440 595
440 611
440 619
440 625
440 732
440 765
440 766
440 769
440 855
440 877
440 886
440 937
440 939
440 999
441 456
441 458
441 467
441 482
441 483
441 495
441 553
441 599
441 630
441 633
441 635
441 662
441 667
441 686
441 732
441 753
441 761
441 774
441 780
441 783
441 793
441 798
441 829
441 849
441 855
441 872
441 954
441 981
442 451
442 549
442 762
442 839
442 888
442 900
442 937
442 948
442 986
443 464
443 480
443 540
443 545
443 565
443 568
443 569
443 606
443 610
443 630
443 661
443 679
443 697
443 700
443 702
443 707
443 710
443 715
443 760
443 776
443 790
443 797
443 800
443 854
443 860
443 883
443 884
443 927
443 952
444 471
444 485
444 558
444 587
444 627
444 662
444 671
444 680
444 681
444 685
444 721
444 791
444 796
444 831
444 858
444 885
444 926
444 930
444 953
444 967
444 975
444 986
445 521
445 553
445 598
445 689
445 776
445 786
445 796
445 797
445 848
445 935
445 937
445 943
445 969
445 999
446 448
446 562
446 595
446 625
446 638
446 786
446 804
446 818
446 842
446 914
446 951
446 972
446 988
447 454
447 471
447 507
447 545
447 603
447 628
447 629
447 662
447 732
447 958
447 977
448 449
448 459
448 516
448 535
448 573
448 637
448 642
448 668
448 742
448 797
448 854
448 944
448 984
449 455
449 485
449 517
449 549
449 607
449 640
449 665
449 678
449 850
449 923
449 928
450 452
450 480
450 500
450 555
450 560
450 567
450 587
450 706
450 713
450 725
450 732
450 754
450 807
450 808
450 813
450 840
450 846
450 863
450 873
450 882
450 937
450 967
450 987
451 473
451 478
451 550
451 573
451 693
451 721
451 743
451 785
451 791
451 798
451 860
451 869
451 881
451 902
451 993
452 483
452 554
452 605
452 644
452 652
452 669
452 712
452 724
452 776
452 954
452 962
452 989
452 995
452 999
453 472
453 520
453 632
453 656
453 672
453 677
453 684
453 689
453 839
453 946
454 581
454 584
454 720
454 729
454 756
454 776
454 850
454 998
455 501
455 541
455 604
455 608
455 653
455 654
455 758
455 813
455 907
455 914
455 925
455 931
455 969
456 468
456 506
456 517
456 519
456 526
456 548
456 559
456 560
456 613
456 661
456 664
456 665
456 734
456 744
456 760
456 769
456 818
456 875
457 541
457 751
457 761
457 794
457 872
457 999
458 543
458 633
458 640
458 679
458 693
458 836
459 479
459 487
459 524
459 538
459 672
459 693
459 702
459 763
459 819
459 824
459 901
459 951
459 972
460 512
460 585
460 600
460 651
460 700
460 712
460 721
460 751
460 762
460 767
460 876
460 913
460 965
460 998
461 553
461 640
461 712
461 732
461 746
461 861
461 957
461 963
462 504
462 559
462 607
462 629
462 676
462 743
462 744
462 776
462 795
462 802
462 883
462 941
463 488
463 638
463 639
463 715
463 724
463 937
463 949
463 967
464 475
464 619
464 654
464 671
464 697
464 725
464 812
464 921
464 999
465 644
465 654
465 677
465 711
465 754
465 848
465 935
465 981
466 474
466 506
466 576
466 633
466 677
466 694
466 786
466 935
466 968
466 977
467 515
467 615
467 635
467 636
467 720
467 732
467 760
467 827
467 832
467 961
467 967
467 969
468 485
468 488
468 564
468 570
468 595
468 707
468 745
468 819
468 863
468 877
468 902
468 932
468 987
468 997
469 490
469 504
469 552
469 613
469 677
469 746
469 790
469 792
469 924
469 955
469 974
469 992
470 478
470 515
470 520
470 655
470 782
470 844
470 867
470 937
470 946
470 984
471 483
471 570
471 616
471 672
471 697
471 717
471 751
471 765
471 781
471 791
471 877
471 917
471 977
472 609
472 652
472 839
472 957
473 484
473 585
473 712
473 725
473 819
473 829
473 937
473 977
474 560
474 804
474 919
474 935
474 979
475 516
475 540
475 541
475 576
475 577
475 593
475 617
475 632
475 633
475 649
475 662
475 715
475 741
475 751
475 755
475 808
475 854
475 919
475 963
475 969
475 970
475 983
475 996
476 525
476 559
476 568
476 641
476 754
476 789
476 845
476 893
476 957
476 995
477 604
477 677
477 707
477 751
477 754
477 821
477 845
477 871
477 907
477 911
477 931
477 943
478 527
478 531
478 557
478 573
478 616
478 618
478 631
478 638
478 640
478 671
478 693
478 720
478 741
478 755
478 767
478 785
478 834
478 921
478 957
479 490
479 497
479 598
479 611
479 726
479 737
479 746
479 773
479 816
479 921
479 926
479 940
479 994
480 484
480 732
480 806
480 952
481 550
481 630
481 708
481 839
481 863
481 985
482 607
482 900
482 923
483 557
483 599
483 631
483 732
483 916
483 920
483 923
483 938
483 960
484 558
484 572
484 588
484 601
484 714
484 716
484 736
484 777
484 787
484 795
484 839
484 881
484 916
484 940
484 994
485 487
485 496
485 505
485 513
485 522
485 549
485 593
485 599
485 607
485 611
485 681
485 703
485 721
485 732
485 759
485 776
485 795
485 825
485 837
485 846
485 850
485 922
485 923
485 928
485 944
485 958
485 959
485 977
485 983
486 520
486 640
486 646
486 717
486 741
486 779
486 857
486 962
487 497
487 525
487 538
487 586
487 671
487 693
487 729
487 796
487 927
488 588
488 601
488 638
488 697
488 715
488 724
488 774
488 790
488 887
488 919
488 967
489 526
489 546
489 597
489 640
489 657
489 712
489 727
489 816
489 901
489 904
490 581
490 628
490 644
490 647
490 658
490 728
490 808
490 816
490 934
490 987
491 500
491 512
491 639
491 649
491 711
491 722
491 793
491 803
491 862
491 891
491 900
491 911
491 969
491 975
491 998
492 569
492 677
492 714
492 741
492 745
492 797
492 869
492 922
492 973
493 672
493 684
493 749
493 780
493 792
493 893
493 963
494 555
494 635
494 722
494 855
494 904
494 978
495 532
495 541
495 630
495 640
495 664
495 760
495 776
495 854
495 909
495 940
495 963
495 977
496 640
496 724
496 731
496 776
496 777
496 820
496 893
496 918
496 943
497 534
497 639
497 648
497 721
497 776
497 813
497 853
498 616
498 677
498 693
498 842
498 883
498 963
499 515
499 548
499 583
499 730
499 796
499 821
499 863
499 881
499 883
500 555
500 573
500 640
500 641
500 669
500 672
500 755
500 765
500 769
501 508
501 545
501 563
501 609
501 770
501 779
501 787
501 790
501 854
501 949
502 652
502 834
502 928
502 951
502 977
502 986
503 504
503 514
503 531
503 554
503 676
503 705
503 786
503 849
503 855
503 920
503 923
503 967
503 998
504 521
504 567
504 643
504 780
504 948
505 549
505 550
505 672
505 701
505 733
505 777
505 840
505 853
505 919
505 963
505 970
506 529
506 581
506 625
506 627
506 641
506 716
506 751
506 800
506 818
506 824
506 952
506 977
507 526
507 557
507 688
507 701
507 774
507 777
507 823
507 841
507 848
507 915
507 923
508 525
508 551
508 562
508 564
508 701
508 797
508 803
508 841
508 948
508 961
509 534
509 609
509 725
509 884
509 896
509 960
509 989
509 991
510 530
510 557
510 602
510 605
510 692
510 803
510 893
511 514
511 550
511 597
511 702
511 710
511 720
511 844
511 863
511 973
512 520
512 561
512 567
512 572
512 644
512 668
512 707
512 764
512 863
512 948
512 964
513 640
513 642
513 746
513 769
513 782
514 549
514 588
514 600
514 615
514 654
514 670
514 672
514 680
514 690
514 722
514 765
514 814
514 985
515 557
515 603
515 607
515 629
515 693
515 744
515 785
515 796
515 817
515 874
515 937
515 938
516 535
516 557
516 642
516 730
516 735
516 777
516 842
516 854
516 889
516 902
516 916
516 935
516 955
516 956
516 986
517 546
517 577
517 613
517 697
517 803
517 911
518 567
518 702
518 902
518 911
518 939
518 969
519 595
519 614
519 786
519 973
519 977
519 981
520 521
520 556
520 562
520 564
520 581
520 590
520 595
520 600
520 666
520 668
520 686
520 697
520 710
520 727
520 751
520 754
520 757
520 762
520 778
520 792
520 815
520 825
520 834
520 839
520 865
520 867
520 926
520 937
520 953
520 958
520 960
520 963
520 967
520 976
520 980
521 602
521 657
521 672
521 776
521 786
521 797
521 863
521 932
521 935
521 984
522 546
522 569
522 636
522 650
522 654
522 677
522 754
522 824
522 831
522 868
522 911
522 974
523 545
523 604
523 629
523 663
523 794
523 809
523 897
523 921
523 968
524 556
524 693
524 699
524 776
524 857
524 877
524 969
524 989
524 998
525 530
525 538
525 588
525 625
525 627
525 666
525 669
525 690
525 796
525 940
525 976
526 532
526 543
526 606
526 608
526 611
526 619
526 661
526 679
526 688
526 754
526 755
526 783
526 820
526 826
526 831
526 834
526 841
526 865
526 898
526 927
526 929
526 946
526 965
526 993
527 577
527 729
527 854
527 855
528 534
528 630
528 735
528 862
529 574
529 627
529 672
529 751
529 864
529 872
530 647
530 692
530 721
530 803
530 844
530 845
530 851
530 855
530 913
530 949
530 967
531 570
531 630
531 643
531 652
531 732
531 766
531 819
531 855
531 994
532 535
532 606
532 676
532 688
532 690
532 816
532 924
533 538
533 590
533 667
533 710
533 712
533 937
534 603
534 621
534 631
534 772
534 792
534 793
534 842
534 977
535 598
535 604
535 662
535 666
535 672
535 741
535 760
535 824
535 875
536 540
536 550
536 715
536 769
536 773
536 790
536 908
536 949
536 973
537 656
537 695
537 712
537 730
537 848
537 902
537 913
537 937
537 943
538 550
538 557
538 651
538 662
538 732
538 773
538 790
538 793
538 823
538 963
538 968
539 619
539 671
539 683
539 722
539 792
539 839
539 935
539 985
539 998
540 541
540 554
540 568
540 578
540 595
540 601
540 710
540 713
540 723
540 853
540 937
540 949
541 554
541 560
541 618
541 630
541 714
541 726
541 731
541 733
541 746
541 751
541 770
541 782
541 789
541 794
541 825
541 830
541 843
541 845
541 847
541 872
541 921
541 948
541 955
542 612
542 672
542 713
542 863
543 786
543 834
543 855
543 978
543 999
544 550
544 714
544 751
544 788
544 798
544 810
544 843
544 854
544 898
544 963
544 967
545 725
545 784
545 795
545 803
545 822
545 877
545 981
546 547
546 589
546 597
546 599
546 600
546 634
546 689
546 739
546 753
546 764
546 772
546 780
546 789
546 807
546 847
546 874
546 875
546 884
546 932
546 945
546 974
546 981
546 997
547 725
547 751
547 881
547 969
548 603
548 612
548 660
548 698
548 706
548 723
548 785
548 881
548 958
548 990
549 569
549 699
549 823
549 887
550 581
550 786
550 824
550 837
550 854
551 574
551 638
551 717
551 746
551 830
551 843
552 896
552 907
552 934
553 575
553 610
553 665
553 687
553 725
553 745
553 792
553 797
553 801
553 872
553 887
553 889
553 923
553 929
554 598
554 612
554 643
554 683
554 701
554 720
554 766
554 768
554 829
554 871
554 923
554 949
554 957
555 616
555 767
555 862
555 873
555 874
555 897
556 595
556 640
556 694
556 747
556 823
556 865
556 867
557 626
557 643
557 645
557 650
557 660
557 684
557 702
557 703
557 704
557 764
557 778
557 787
557 794
557 820
557 859
557 896
557 923
557 975
558 559
558 561
558 565
558 771
558 791
558 823
558 837
558 889
558 907
558 942
558 985
559 701
559 721
559 961
559 979
560 690
560 751
560 937
561 574
561 599
561 682
561 740
561 796
561 824
562 581
562 584
562 682
562 740
562 914
562 936
562 946
562 977
563 589
563 735
563 790
563 981
563 994
564 607
564 608
564 634
564 666
564 697
564 718
564 792
564 883
564 913
564 917
564 924
564 938
564 986
565 612
565 621
565 670
565 684
565 700
565 721
565 949
565 999
566 711
566 784
566 940
566 946
567 589
567 591
567 600
567 608
567 635
567 656
567 689
567 697
567 699
567 713
567 783
567 790
567 813
567 832
567 835
567 838
567 849
567 869
567 876
567 879
567 890
567 969
568 595
568 666
568 687
568 750
568 830
568 835
568 895
568 940
569 587
569 662
569 674
569 693
569 756
569 762
569 795
569 807
569 823
569 829
569 832
569 838
569 852
569 948
570 630
570 645
570 673
570 693
570 694
570 710
570 732
570 902
570 908
570 940
571 583
571 693
571 828
571 869
571 911
571 937
571 994
572 644
572 685
572 702
572 724
572 741
572 769
572 818
572 853
572 969
572 970
572 995
573 577
573 619
573 649
573 654
573 666
573 667
573 693
573 709
573 720
573 823
573 850
573 854
573 860
573 874
573 902
573 936
573 937
573 946
573 960
574 587
574 599
574 636
574 652
574 691
574 694
574 785
574 817
574 831
574 901
575 606
575 621
575 686
575 743
575 824
575 888
575 895
575 926
575 930
575 944
575 963
575 985
575 989
576 672
576 680
576 717
576 750
576 868
576 871
576 965
576 974
577 590
577 759
577 970
577 986
578 601
578 674
578 688
578 857
578 865
578 975
579 622
579 652
579 777
579 800
579 835
579 853
579 915
580 653
580 681
580 766
580 770
580 772
580 824
580 832
580 952
580 960
580 994
581 608
581 721
581 814
581 876
581 891
581 953
581 981
582 626
582 666
582 684
582 713
582 716
582 764
582 801
582 827
582 850
582 870
582 909
582 922
582 935
582 952
582 973
583 595
583 611
583 854
583 909
584 653
584 666
584 682
584 723
584 782
584 793
584 811
584 840
584 851
584 883
584 889
584 909
584 914
584 921
584 947
584 949
584 959
584 968
585 677
585 693
585 702
585 712
585 863
585 896
585 926
585 989
586 641
586 702
586 761
586 786
586 845
586 901
586 984
586 993
587 628
587 745
587 848
587 853
587 907
587 916
587 920
587 950
587 952
587 994
588 612
588 630
588 663
588 753
588 834
588 865
588 909
589 621
589 655
589 675
589 702
589 745
589 751
589 753
589 791
589 793
589 841
589 844
589 902
590 595
590 649
590 662
590 736
590 792
590 816
590 850
590 898
590 899
591 616
591 662
591 710
591 799
591 803
591 820
591 822
591 876
591 981
592 647
592 677
592 711
592 732
592 794
592 803
592 820
592 946
592 953
592 970
592 972
592 991
593 614
593 671
593 710
593 745
593 825
593 854
593 919
593 943
594 712
594 813
594 906
594 918
594 956
594 977
595 618
595 636
595 697
595 723
595 740
595 757
595 776
595 779
595 797
595 815
595 824
595 865
595 881
595 951
595 979
595 991
596 644
596 683
596 737
596 744
596 751
596 765
596 769
596 800
596 809
596 840
596 841
596 891
596 963
596 977
597 723
597 772
597 898
597 945
598 855
598 886
598 900
599 616
599 617
599 625
599 639
599 648
599 693
599 710
599 712
599 716
599 732
599 733
599 737
599 760
599 773
599 828
599 900
599 927
599 939
599 956
599 963
599 971
600 601
600 790
600 832
600 898
600 951
601 694
601 811
601 922
602 672
602 860
602 874
602 955
602 962
602 963
602 986
602 994
603 721
603 724
603 733
603 766
603 901
603 963
603 973
604 633
604 693
604 721
604 732
604 785
604 856
604 860
604 904
604 911
604 931
604 934
604 951
604 958
605 630
605 763
605 785
605 820
605 823
605 911
605 924
606 672
606 726
606 834
606 883
606 955
607 634
607 729
607 744
607 784
607 925
607 941
607 982
608 703
608 706
608 741
608 804
608 967
608 990
610 667
610 688
610 801
610 865
610 901
611 799
611 828
611 851
611 900
612 715
612 724
612 755
612 794
612 951
612 955
613 712
613 794
613 838
613 951
614 617
614 704
614 705
614 937
614 946
614 981
615 622
615 972
615 996
616 651
616 671
616 683
616 732
616 769
616 772
616 859
616 907
616 973
616 988
617 680
617 697
617 721
617 765
617 905
617 948
618 655
618 696
618 719
618 769
618 771
618 803
618 818
618 837
618 854
618 949
618 992
618 995
619 762
619 863
619 891
619 926
619 999
620 803
620 825
620 860
620 887
620 893
620 962
621 622
621 625
621 712
621 767
621 776
621 782
621 790
621 797
621 949
621 983
622 652
622 790
622 828
622 902
622 906
622 943
622 955
622 998
623 646
623 719
623 745
623 798
623 877
623 940
623 998
624 649
624 701
624 702
624 721
624 777
624 782
624 806
624 881
624 886
624 951
624 993
625 652
625 707
625 759
625 827
625 830
625 832
625 835
625 843
625 865
625 878
625 923
625 934
625 950
625 953
626 677
626 687
626 751
626 776
626 793
626 845
626 859
626 871
626 904
626 913
626 931
626 998
627 697
627 835
627 843
627 904
627 949
627 953
628 745
628 773
628 785
628 877
628 901
628 916
629 635
629 652
629 697
629 782
629 802
629 839
630 634
630 642
630 685
630 698
630 710
630 715
630 747
630 776
630 830
630 842
630 871
630 934
630 938
630 949
631 686
631 767
631 915
632 677
632 701
632 753
632 873
632 960
633 663
633 731
633 907
633 984
634 642
634 706
634 751
634 999
635 696
635 718
635 723
635 726
635 785
635 949
636 785
636 950
636 999
637 729
637 869
637 930
637 964
637 994
638 664
638 724
638 769
638 845
638 885
638 938
638 999
639 678
639 854
639 855
639 946
640 647
640 670
640 671
640 725
640 746
640 763
640 782
640 796
640 816
640 870
640 886
640 887
640 888
640 906
640 920
640 921
640 934
640 951
640 996
641 647
641 712
641 731
641 765
641 769
641 858
641 862
641 903
642 654
642 698
642 721
642 740
642 764
642 792
642 862
642 877
642 878
643 644
643 765
643 973
643 994
644 664
644 668
644 670
644 696
644 701
644 722
644 732
644 788
644 852
644 920
644 921
644 924
644 971
645 677
645 752
645 883
645 914
645 938
646 676
646 677
646 680
646 697
646 725
646 736
646 740
646 748
646 760
646 788
646 861
646 870
646 874
646 881
646 912
646 938
646 953
646 973
646 992
646 998
647 712
647 743
647 803
647 827
647 873
647 948
647 991
648 690
648 712
648 728
648 817
648 860
648 891
649 662
649 669
649 693
649 860
649 936
649 946
649 981
650 745
650 818
650 829
650 911
650 916
650 946
650 974
651 712
651 998
652 691
652 712
652 724
652 729
652 779
652 793
652 794
652 803
652 809
652 819
652 824
652 826
652 835
652 845
652 869
652 878
652 882
652 903
652 907
652 926
652 950
652 958
652 978
652 995
653 659
653 666
653 693
653 723
653 799
653 852
653 874
653 946
654 657
654 668
654 678
654 697
654 732
654 752
654 757
654 767
654 780
654 787
654 797
654 829
654 843
654 871
654 900
655 672
655 704
655 761
655 768
655 775
655 839
655 844
655 848
655 893
655 928
655 935
655 948
656 693
656 726
656 776
656 788
656 793
656 839
656 856
656 938
656 946
657 835
657 843
657 855
657 862
657 963
658 677
658 754
658 973
658 999
659 662
659 690
659 979
660 745
660 780
660 815
660 870
660 923
660 961
661 722
661 820
661 828
661 877
661 925
662 681
662 702
662 722
662 735
662 743
662 765
662 769
662 782
662 792
662 813
662 824
662 830
662 852
662 900
662 902
662 913
662 930
662 937
662 950
662 951
662 966
662 968
662 972
662 981
663 707
663 735
663 952
663 998
664 670
664 673
664 713
664 721
664 734
664 769
664 807
664 814
664 838
664 845
664 871
664 886
664 905
664 917
664 921
664 959
665 697
665 747
665 783
665 797
665 813
665 923
665 951
665 966
666 681
666 718
666 782
666 821
666 953
666 972
667 754
667 777
667 829
667 877
667 966
668 735
668 751
668 757
668 855
668 869
668 879
668 906
669 680
669 825
669 937
670 671
670 765
670 780
670 781
670 816
670 819
670 860
670 877
670 986
671 690
671 696
671 739
671 740
671 741
671 764
671 812
671 814
671 844
671 871
671 874
671 970
672 693
672 698
672 710
672 726
672 733
672 754
672 780
672 803
672 827
672 850
672 864
672 893
672 901
672 913
672 962
672 979
672 997
673 695
673 720
673 819
673 824
673 938
673 940
674 721
674 765
674 772
674 867
674 947
674 975
674 992
675 752
675 790
675 860
675 874
675 905
676 786
676 808
676 817
676 819
677 688
677 690
677 692
677 746
677 753
677 755
677 789
677 790
677 810
677 829
677 863
677 864
677 884
677 897
677 931
677 967
678 725
678 765
678 824
678 843
678 849
678 850
678 930
678 952
679 695
679 756
679 824
679 874
679 991
680 733
680 793
680 895
680 966
680 999
681 746
681 785
681 806
681 846
681 900
681 986
682 697
682 753
682 856
682 963
682 969
682 988
683 694
683 702
683 722
683 784
683 792
683 977
684 725
684 777
684 843
685 765
685 769
685 792
685 927
685 980
686 790
686 796
686 812
686 935
686 963
686 985
686 986
686 996
687 729
687 797
687 803
687 836
688 772
689 820
689 853
689 866
689 889
689 993
690 722
690 796
690 853
690 963
690 975
691 702
691 785
691 931
691 985
692 737
692 755
692 764
692 797
692 803
692 953
692 995
693 697
693 720
693 760
693 788
693 811
693 859
693 860
693 874
693 902
693 916
693 945
693 996
694 700
694 809
694 841
694 915
694 943
694 985
694 994
695 748
695 848
695 911
695 937
695 953
695 965
696 702
696 704
696 707
696 754
696 868
696 895
696 935
696 942
697 698
697 703
697 713
697 729
697 745
697 757
697 776
697 795
697 815
697 828
697 834
697 865
697 914
697 944
697 953
697 978
697 990
697 992
698 829
699 706
699 716
699 760
699 801
699 815
699 827
699 918
699 998
700 721
700 844
700 861
700 923
701 702
701 726
701 728
701 730
701 733
701 735
701 743
701 768
701 784
701 808
701 835
701 837
701 842
701 843
701 844
701 854
701 934
701 951
701 961
701 979
702 706
702 707
702 765
702 767
702 802
702 841
702 902
702 923
702 972
703 764
703 771
703 782
703 790
703 888
703 911
703 921
703 953
703 973
703 981
703 985
704 791
704 793
704 965
704 989
704 999
705 897
705 923
705 928
705 990
706 715
706 804
706 876
706 884
706 933
707 843
707 854
707 863
707 970
707 975
707 985
708 830
708 839
708 863
708 883
708 951
708 971
709 752
709 790
709 842
709 872
709 884
709 969
709 978
710 747
710 780
710 786
710 826
710 874
710 877
710 914
710 934
710 940
710 948
710 952
710 973
711 792
711 823
711 911
712 791
712 803
712 822
712 825
712 850
712 861
712 869
712 947
712 962
712 965
712 967
712 976
712 991
712 998
713 717
713 808
713 818
713 875
713 886
713 920
714 797
714 830
714 942
714 951
715 724
715 755
715 820
715 893
715 900
715 967
716 722
716 754
716 785
716 952
717 731
717 813
717 824
717 829
717 863
718 738
718 761
718 767
718 780
718 913
718 986
719 722
719 786
719 809
719 829
719 894
719 936
719 940
719 961
720 860
720 863
720 902
721 743
721 751
721 767
721 781
721 803
721 825
721 900
721 905
721 916
721 963
721 992
722 813
722 834
722 888
722 937
722 940
723 793
723 882
723 900
723 973
723 996
724 751
724 753
724 755
724 761
724 766
724 792
724 795
724 835
724 843
724 854
724 911
724 943
724 967
724 985
725 737
725 792
725 795
725 805
725 816
725 823
725 828
725 838
725 855
725 909
725 912
725 913
725 916
725 922
725 956
725 968
725 973
726 740
726 786
726 789
726 803
726 816
726 843
726 883
726 921
726 953
727 814
727 861
727 911
728 735
728 803
728 923
728 973
729 753
729 812
729 818
729 872
729 998
730 733
730 784
730 803
730 839
731 736
731 754
731 765
731 769
731 780
731 946
731 977
732 778
732 832
732 850
732 867
732 869
732 871
732 920
732 967
733 812
733 902
733 967
734 754
734 777
734 783
734 890
734 919
734 957
735 751
735 766
735 870
735 902
735 964
736 793
736 822
736 958
736 986
737 740
737 756
737 816
738 777
738 787
738 884
738 898
738 913
738 953
738 986
739 760
739 771
739 823
739 874
739 951
740 741
740 765
740 778
740 796
740 797
740 803
740 884
740 944
741 748
741 749
741 776
741 784
741 788
741 813
741 843
741 896
741 952
741 984
742 797
742 816
742 839
742 873
742 977
742 982
743 796
743 803
743 882
743 912
743 973
744 941
744 951
745 826
745 829
745 848
745 884
745 897
745 926
745 935
745 945
745 954
745 981
745 985
745 995
745 998
746 782
746 817
746 906
746 943
746 959
746 996
747 847
747 862
747 871
747 874
747 890
747 941
748 777
748 797
748 814
748 838
748 877
748 937
749 766
749 769
749 918
749 962
750 806
750 809
750 935
750 988
751 762
751 794
751 820
751 835
751 838
751 852
751 853
751 862
751 871
751 872
751 877
751 880
751 910
751 912
751 942
751 950
752 790
752 969
753 777
753 785
753 854
753 900
753 913
753 942
753 979
754 770
754 774
754 775
754 777
754 782
754 793
754 807
754 839
754 885
754 948
754 957
754 963
755 770
755 775
755 967
756 762
756 786
756 935
756 948
756 982
757 804
757 814
757 829
757 848
757 870
757 935
757 966
757 973
757 986
758 776
758 780
758 793
758 865
758 900
758 923
758 946
758 977
759 785
759 797
759 955
759 977
760 790
760 935
761 800
761 805
761 820
761 839
761 845
761 865
762 769
762 794
762 799
762 854
762 948
762 961
762 973
763 769
763 843
764 848
764 875
765 769
765 794
765 843
765 863
765 911
765 915
765 970
765 980
766 797
766 799
766 818
766 837
766 935
766 949
767 777
767 798
767 860
767 904
767 946
767 956
768 824
768 856
768 900
768 923
768 943
768 963
768 985
769 784
769 787
769 814
769 820
769 852
769 907
769 954
769 969
769 977
769 980
770 774
770 799
770 819
770 874
770 909
770 934
770 936
770 951
771 850
771 874
771 897
772 803
772 938
772 949
773 786
773 836
773 902
774 843
774 899
774 957
774 986
775 786
775 797
775 877
775 896
775 935
775 938
775 972
776 785
776 787
776 807
776 819
776 846
776 891
776 902
776 954
776 982
776 985
776 995
777 891
777 938
777 947
777 956
777 960
777 972
778 785
778 792
778 811
778 824
778 916
778 932
778 963
779 975
779 977
780 827
780 893
780 907
780 957
781 841
781 853
781 928
781 953
781 994
782 790
782 808
782 906
782 976
783 796
783 832
783 948
784 786
784 946
784 949
785 899
785 907
785 917
785 956
786 790
786 797
786 801
786 837
786 842
786 854
786 883
786 892
786 896
786 935
786 983
786 984
787 900
787 932
787 967
787 986
788 833
788 862
788 898
788 919
788 943
788 946
788 967
789 951
790 816
790 818
790 844
790 879
790 919
790 937
790 963
790 969
790 973
790 995
791 834
791 844
791 893
791 904
791 964
792 797
792 807
792 843
792 845
792 854
792 879
792 880
792 902
792 922
792 977
792 986
792 993
793 844
793 887
793 900
793 936
793 963
793 971
793 974
793 994
794 812
794 849
794 872
794 907
795 825
795 862
795 905
795 913
795 923
795 927
795 986
795 987
796 839
796 946
797 802
797 823
797 896
797 903
797 919
797 930
797 935
797 944
797 956
797 958
797 966
797 984
797 987
798 835
798 886
798 963
798 999
799 874
799 883
799 911
799 960
799 969
799 974
799 977
799 986
800 952
801 898
801 952
802 825
803 829
803 838
803 856
803 857
803 877
803 878
803 991
803 999
804 865
804 876
804 939
804 966
805 830
805 874
806 809
806 842
806 889
806 917
806 944
807 952
808 824
808 833
808 874
808 934
809 955
810 815
811 819
811 823
812 878
812 913
812 965
812 973
812 986
812 999
813 924
813 994
814 884
814 890
814 953
815 834
815 888
815 927
816 863
816 921
816 958
816 977
817 866
818 823
818 893
818 951
818 952
818 987
819 844
819 854
819 892
819 909
819 934
819 951
820 863
820 882
820 922
820 935
820 939
820 976
820 984
821 911
821 940
822 829
822 884
822 917
823 831
823 841
823 847
823 848
823 867
823 942
823 948
823 952
823 984
824 839
824 879
824 890
824 934
824 963
824 976
824 977
824 985
824 988
825 929
825 942
826 950
827 864
827 884
827 894
828 870
828 945
829 884
829 959
829 972
829 977
830 941
830 997
831 896
831 911
832 916
832 984
833 834
833 837
833 911
833 939
833 953
833 956
833 976
833 998
834 849
834 865
834 877
834 927
834 958
835 878
836 841
836 851
836 900
836 979
837 850
837 952
838 890
838 912
839 841
839 863
839 874
839 887
839 911
839 924
839 954
839 955
839 974
839 980
839 985
840 970
841 905
841 951
841 961
841 981
841 995
842 863
842 903
842 919
842 967
843 851
843 868
843 910
843 951
843 971
843 977
843 983
844 860
844 861
844 869
844 875
844 877
844 883
844 945
844 985
844 990
845 852
845 921
845 922
845 925
845 931
845 955
845 961
845 965
845 967
845 992
846 923
846 937
847 967
847 999
848 920
848 937
848 943
849 890
849 930
849 945
849 999
850 866
850 894
850 897
850 898
850 899
850 901
850 914
851 880
851 884
851 900
851 922
852 871
852 895
852 932
852 935
853 900
853 962
853 977
853 981
853 992
854 859
854 878
854 935
855 895
855 961
855 975
856 889
856 902
856 905
856 926
856 945
856 997
857 931
857 937
857 954
857 959
858 900
859 902
860 901
860 902
860 914
860 917
860 936
860 944
861 879
861 935
861 957
861 998
862 986
863 924
863 942
863 963
863 984
863 985
863 988
864 893
864 900
864 965
864 997
865 946
866 909
866 959
866 996
867 942
867 948
868 881
869 999
870 904
870 947
870 957
870 974
871 946
872 951
872 979
873 900
873 948
873 994
874 898
874 900
874 921
874 937
874 971
874 978
876 928
876 953
876 999
877 914
877 932
877 939
877 961
877 967
877 987
878 899
878 963
879 911
880 900
881 971
881 998
882 973
882 999
883 923
883 977
884 910
884 915
884 933
884 944
884 953
884 988
884 989
885 914
885 927
885 940
885 951
885 955
885 956
885 980
886 935
887 986
887 999
888 953
888 967
889 891
889 906
889 948
890 938
890 962
890 963
891 965
891 977
892 935
892 984
894 898
894 917
894 968
894 976
895 935
896 911
896 928
896 935
897 937
900 901
900 995
900 998
902 905
902 911
902 936
902 951
902 963
902 980
902 983
905 919
905 921
906 920
906 981
907 921
907 981
907 986
907 994
909 960
910 951
910 998
911 914
911 926
911 927
911 974
912 953
912 985
913 961
913 986
914 922
914 951
914 972
917 924
917 963
917 977
918 964
918 977
919 970
920 948
920 972
920 977
921 984
922 931
922 953
922 972
922 988
923 931
923 949
923 954
923 969
923 992
924 931
924 963
924 981
925 931
925 948
925 998
926 958
927 968
928 985
929 935
929 950
929 952
929 981
930 942
930 974
930 994
931 977
932 996
933 942
933 988
934 998
935 968
935 973
935 977
935 984
937 958
937 973
937 994
938 940
938 959
938 964
938 973
939 942
940 942
940 945
940 983
941 972
941 981
942 957
943 948
943 981
943 992
943 994
944 968
946 947
946 949
946 952
946 981
948 959
948 992
949 958
949 986
950 988
951 966
951 968
951 972
951 981
951 986
951 994
953 978
955 963
957 969
957 985
958 993
959 969
963 988
964 987
966 972
967 977
968 972
968 998
972 991
977 982
978 999
981 987
981 991
981 998
985 986
985 988
986 991
989 994
993 994
